18
dipolar_000864 reactant_1 (FRAG1 relaxed, reordered to d) type=dipole
C        2.2252900       0.8899000       0.1213100
C        1.0739200      -0.0194100       0.1063600
O        2.1422400       2.1097100      -0.0047800
C       -0.5771400       1.7469700      -0.2188600
C       -0.9214200      -1.9762600       0.1094000
C        3.5486900       0.1938600       0.3049200
N       -0.1938300       0.3266700      -0.0464000
C       -1.2140000      -0.6053800      -0.0530100
N       -0.6857800      -3.1119100       0.2438600
N       -3.6993800       0.0054700      -0.3561400
C       -2.5640900      -0.2355400      -0.2209000
H        3.7081100      -0.5355500      -0.5063000
H       -0.2445100       2.3121800       0.6575300
H        4.3599700       0.9326200       0.3084000
H       -1.6620100       1.8157000      -0.3248500
H       -0.0823000       2.1419200      -1.1118300
H        1.2731100      -1.0842300       0.2289900
H        3.5514300      -0.3723400       1.2508500
