13
dipolar_000864 reactant_2 @ TS geom
C       -0.5577400      -0.5038300       0.1704500
C        0.5277200      -0.4864500      -0.9717200
O        0.7053000       0.9377800      -1.1213600
C        1.1172500       1.1898500       0.2370900
C        2.2857100       0.1876800       0.3277900
F        3.3703000       0.3859700       1.0469200
C        1.9262800      -0.8682800      -0.4137900
Br       2.8441100      -2.4612500      -0.7002500
C       -0.0786900       0.5961500       0.9881500
H       -0.7757900      -1.5170600       0.6600700
H        0.2435500      -0.9740000      -1.8881700
H        1.3549300       2.2308900       0.4447200
H       -0.1601100       0.6468400       2.1084300
