31
dipolar_000864 TS complex (tags stripped)
C       -4.5699500      -0.0908100       0.6447500
C       -3.2108000      -0.7483800       0.4965100
O       -2.9903600      -1.8308000       1.0240000
C       -2.1278900      -0.1465700      -0.4432900
C       -0.5577400      -0.5038300       0.1704500
C        0.5277200      -0.4864500      -0.9717200
O        0.7053000       0.9377800      -1.1213600
C        1.1172500       1.1898500       0.2370900
C        2.2857100       0.1876800       0.3277900
F        3.3703000       0.3859700       1.0469200
C        1.9262800      -0.8682800      -0.4137900
Br       2.8441100      -2.4612500      -0.7002500
C       -0.0786900       0.5961500       0.9881500
C       -1.8374800       2.0146900       0.3893600
C       -2.3932200       1.7779500       1.6901200
N       -2.7772100       1.5792900       2.7755400
C       -1.4262900       3.3622300       0.1489200
N       -1.0335600       4.4464800      -0.0299900
N       -2.2452400       1.2500700      -0.7038400
C       -2.0381300       1.7816900      -2.0543900
H       -4.6460300       0.9802300       0.4361200
H       -5.3120000      -0.6175800       0.0262200
H       -4.9361200      -0.2419100       1.7290500
H       -2.3286800      -0.6726700      -1.4489700
H       -0.7757900      -1.5170600       0.6600700
H        0.2435500      -0.9740000      -1.8881700
H        1.3549300       2.2308900       0.4447200
H       -0.1601100       0.6468400       2.1084300
H       -2.1651700       0.9759200      -2.7871100
H       -0.9875300       2.1621100      -2.1558200
H       -2.7311200       2.5890900      -2.2641900
