19
dipolar_002810 reactant_1 (FRAG1 relaxed, reordered to d) type=dipole
C        0.6536900       1.3239500      -0.2373200
O       -0.4515100       2.0662600      -0.2689000
C        0.4357000      -0.1089200      -0.0140000
O        1.7787000       1.7954800      -0.3810500
C       -0.8640900      -0.7476600       0.1580300
C       -1.9732400      -2.8119900       0.5459900
O       -1.9461400      -0.1880900       0.1273400
O       -0.7534000      -2.0796300       0.3638900
C       -0.2721100       3.4736200      -0.4830400
N        1.6227400      -0.7844800       0.0129000
N        1.9667100      -1.9901600       0.1698700
H        2.4022100      -0.1167300      -0.1346900
H        0.2159300       3.6588500      -1.4508100
H       -1.2791700       3.9062600      -0.4778200
H        1.1062700      -2.5404000       0.3039600
H       -2.5154100      -2.4429000       1.4282800
H       -1.6754500      -3.8564900       0.6928000
H        0.3342500       3.9131500       0.3221000
H       -2.6139600      -2.7199300      -0.3425700
