24
dipolar_002810 reactant_2 (FRAG2 relaxed, reordered to d) type=dipolarophile
C        0.3250100      -0.2248700       0.2200500
C        0.4729100       1.0969400       0.7663700
C       -0.4485000       2.0544800      -0.0117300
Br      -0.0550800       1.0422500       2.6906000
Br       2.3532700       1.7195300       0.6582000
C       -1.8849300       1.5417100      -0.2454000
C       -0.1969900      -1.1311500      -0.3885700
C       -2.4336000      -0.8371100      -1.3111200
C       -1.1879400      -1.8016600      -1.2280300
C       -2.1449800       0.6654900      -1.5027300
C       -0.5967200      -2.1098200      -2.6315200
N       -1.9729400      -4.0810300      -0.1721300
C       -1.6130700      -3.0847900      -0.6411800
F       -0.2032900      -0.9945200      -3.2512100
F        0.4648500      -2.9194200      -2.5300600
F       -1.5051400      -2.7170400      -3.4024900
H       -2.2566600       1.0366500       0.6609900
H       -2.5013200       2.4468400      -0.3480300
H       -3.0003100      -0.9866400      -0.3810500
H       -3.0617300      -1.2114200      -2.1324200
H       -3.0526100       1.0586400      -1.9845500
H       -1.3400500       0.8125100      -2.2369600
H        0.0350200       2.2373300      -0.9845300
H       -0.4626400       3.0126000       0.5271900
