43
dipolar_002810 TS complex (tags stripped)
C       -3.0874100      -0.7741500       3.4209000
O       -2.6422200      -0.0750700       2.2466700
C       -1.5380400       0.6627100       2.3646200
O       -0.9537700       0.8325900       3.4053000
C       -1.1120100       1.1963500       0.9904100
C       -0.2442500       2.4651900       0.9474400
O        0.0170700       3.0261800      -0.1026700
O        0.1799000       2.8981600       2.1146300
C        1.1355700       3.9792800       2.0855600
N       -2.1871400       1.2618300       0.1046100
N       -1.7842400       1.2405600      -1.2261800
C       -0.5814700       0.1499100      -1.3142900
C       -0.0330400      -0.0321100      -0.1320700
C        1.0339700      -0.8718800       0.4828700
Br       2.1862600       0.3085000       1.6379900
Br       0.1348400      -2.1802600       1.7296000
C        1.9804400      -1.7008500      -0.3845400
C        2.7898300      -0.9081500      -1.4267600
C        2.2820200      -0.9763900      -2.8689400
C        1.1343200      -0.0542300      -3.2826200
C       -0.3103000      -0.3666900      -2.7534600
C       -0.5820300      -1.8148600      -2.8647700
N       -0.7701200      -2.9542200      -2.9651700
C       -1.3119800       0.3025400      -3.7548500
F       -1.0928900      -0.1179700      -5.0137200
F       -1.1630300       1.6319000      -3.7565000
F       -2.5817100      -0.0011200      -3.4778000
H       -3.3546100      -0.0771700       4.2207400
H       -2.2884700      -1.4502900       3.7746500
H       -3.9625100      -1.3634200       3.1136700
H        1.4489900       4.1495900       3.1190800
H        0.6958000       4.8874200       1.6565000
H        2.0139700       3.6829800       1.4716100
H       -2.9519400       0.6098200       0.3403000
H       -1.2115200       2.1160700      -1.2477200
H        2.7001900      -2.2475800       0.2965900
H        1.3983300      -2.4921100      -0.8665700
H        3.8199200      -1.3070100      -1.4278300
H        2.8836800       0.1410100      -1.1136100
H        3.1321500      -0.7137800      -3.5239700
H        2.0410000      -2.0289200      -3.1276300
H        1.1054300      -0.1035000      -4.4107200
H        1.3537900       0.9772700      -3.0264400
