28
dipolar_002185 reactant_2 (FRAG2 relaxed, reordered to d) type=dipolarophile
C        0.0189900       0.3581500       0.1243100
C       -1.2612400      -0.3719400       0.1107400
C       -2.1633500      -0.2941100       1.1894300
C       -2.7933300      -1.8756900      -1.0318500
C       -1.5831800      -1.1855400      -0.9945400
C       -3.6849100      -1.7877500       0.0428700
C        1.2172700      -0.3472500      -0.3650600
C        1.4226500      -1.6946000      -0.0055700
C        0.0951700       1.6600300       0.5813600
C        2.5558800      -2.3756100      -0.4463700
C        3.4831900      -1.7331200      -1.2740300
C        2.1533300       0.2886400      -1.2032900
C        1.3363600       2.3395700       0.7930400
C        3.2746100      -0.4043700      -1.6578700
C       -1.0583100       2.4498300       0.8859400
N        2.3159900       2.9302100       1.0078100
C       -3.3633600      -1.0031700       1.1553000
N       -1.9607100       3.1459400       1.1221000
H       -1.9080400       0.2924800       2.0728600
H       -4.6276400      -2.3389800       0.0172900
H       -3.0406300      -2.4886600      -1.9011700
H       -0.8880800      -1.2562000      -1.8325300
H        1.9837200       1.3152600      -1.5309200
H        0.6990200      -2.1966700       0.6384400
H        2.7146200      -3.4137200      -0.1467900
H        4.3652200      -2.2718700      -1.6277400
H        3.9850100       0.0932100      -2.3214800
H       -4.0471300      -0.9493400       2.0051000
