26
dipolar_002185 reactant_1 (FRAG1 relaxed, reordered to d) type=dipole
C        2.5451700      -1.4395200       0.2432700
O        0.0373800      -1.4371400       1.6608200
C        2.4463200       0.0108700       0.5276600
O       -0.0981900       2.2324900      -1.2285600
C        0.0593100       0.2101400      -0.0429100
C       -0.4801400      -0.9181600       0.6685200
O       -1.8825600       0.8535900      -1.2397800
O       -1.6444500      -1.3975800       0.1626200
C       -2.2609000      -2.4576800       0.8931100
N        1.3395800       0.6726000       0.3382600
C       -0.6204900       1.1690900      -0.8742000
C       -2.5657500       1.8141300      -2.0466100
C        3.6400900       0.7477000       1.0225900
H        3.5856000      -1.7059300       0.0141600
H        2.2136500      -2.0197400       1.1197000
H        4.4803500       0.6037400       0.3245400
H        1.8821300      -1.7159800      -0.5918300
H       -3.1897800      -2.6930200       0.3584500
H       -1.6137200      -3.3473900       0.9243800
H        1.4051700       1.6923300       0.4155500
H       -2.6742100       2.7729100      -1.5173100
H        3.4424900       1.8206900       1.1535600
H       -2.4929500      -2.1501300       1.9242600
H       -3.5559900       1.3874000      -2.2492800
H       -2.0333300       1.9875500      -2.9940700
H        3.9547600       0.3201100       1.9898400
