54
dipolar_002185 TS complex (tags stripped)
C        3.6794700       3.0878900       1.3438700
O        3.2454400       1.8020300       0.8461300
C        2.3280500       1.8155700      -0.0846600
O        1.8733200       2.8057700      -0.6081400
C        1.7918600       0.4065600      -0.4590600
C        2.8917100      -0.6798200      -0.4863400
O        3.2268400      -1.2370300      -1.5020700
O        3.4386100      -0.8592800       0.6950600
C        4.4488300      -1.8779500       0.8000100
N        0.9510100       0.4859000      -1.5130700
C       -0.2235300      -0.4762200      -1.4420800
C       -1.0699800      -0.0223300      -2.6727600
C        0.3474000      -1.8973600      -1.7999900
C       -0.8241300      -0.3514300      -0.0803000
C       -1.7374400      -1.5552100       0.4146400
C       -2.4271800      -2.3318100      -0.5300400
C       -3.2677200      -3.3862700      -0.1604200
C       -3.4623200      -3.6955400       1.1858900
C       -2.8288200      -2.9071800       2.1519200
C       -1.9930900      -1.8446900       1.7726500
C       -1.7596300       0.9187400       0.0094900
C       -3.1541200       0.8034200      -0.1403000
C       -3.9687500       1.9285800      -0.3101700
C       -3.4163400       3.2108400      -0.3169500
C       -2.0416400       3.3472000      -0.1271000
C       -1.2324400       2.2177600       0.0401800
C        0.4062900      -0.2289600       0.9365100
C        0.8551100      -1.4908200       1.4754200
N        1.2691800      -2.5051300       1.8709900
C        0.4783300       0.7776700       1.9749800
N        0.6746500       1.6027300       2.7727100
H        2.8147200       3.6203100       1.7709600
H        4.4187000       2.8722400       2.1159800
H        4.1194300       3.6832500       0.5324100
H        5.3030700      -1.6432200       0.1503800
H        4.0210100      -2.8500800       0.5167200
H        4.7496900      -1.8821200       1.8497700
H        0.6601000       1.4473500      -1.7041300
H       -0.5853000      -0.2093400      -3.7054900
H       -1.2526100       1.0710800      -2.6544400
H       -2.0044400      -0.5376400      -2.6856200
H        0.8467200      -2.3327500      -0.9286700
H       -0.4708500      -2.5463800      -2.0858900
H        1.0978400      -1.9281400      -2.6402600
H       -2.3390600      -2.0896800      -1.5753600
H       -3.7658100      -3.9614000      -0.9474400
H       -4.1189800      -4.5416600       1.4606000
H       -3.0081800      -3.1506000       3.2208300
H       -1.5615400      -1.2703400       2.5898500
H       -3.6405500      -0.1720000      -0.1435500
H       -5.0500200       1.8009300      -0.4574000
H       -4.0463600       4.0943100      -0.4657800
H       -1.5764700       4.3357700      -0.1263400
H       -0.1731200       2.3938700       0.1740600
