17
dipolar_000172 reactant_1 @ TS geom
C        4.6938000       0.7426800      -0.2520800
N        3.2798100       0.5282300      -0.5373500
C        2.4895600      -0.1171500       0.3180300
O        2.8540100      -0.6670200       1.3527500
C        0.9333700      -0.0182000       0.0605400
N        0.3335200      -1.3603100       0.3101500
C       -0.7932700      -1.3224100      -0.3687200
C       -1.9342000      -2.1314800      -0.1351900
N       -2.9037600      -2.7341200       0.0727900
C       -0.5692200      -0.4696100      -1.5862600
O       -1.2474400      -0.3135600      -2.5586900
O        0.6579000       0.0822900      -1.3835000
H        5.2461300      -0.2051800      -0.2189400
H        5.1249800       1.3814800      -1.0354400
H        4.8229500       1.2488400       0.7239500
H        2.8882400       0.9136000      -1.3899700
H        0.4777200      -1.7751100       1.2211900
