20
dipolar_000763 reactant_2 @ TS geom
C       -1.0029900      -0.2304300      -0.2740100
C       -1.9612700       0.4456800       0.6413900
O       -3.1280400       0.6634200       0.3557100
O       -1.3898200       0.8674200       1.7727100
C       -2.1837700       1.6892000       2.6434000
C       -1.6158900      -1.0769500      -1.4424200
C       -2.2118800      -2.3601300      -0.8471100
C       -1.1545500      -3.0990500      -0.4840900
C        0.0715000      -2.2523000      -0.8600200
O       -0.4010400      -1.5773700      -2.0409700
C        0.1330400      -1.0309100       0.1305400
C        0.5459400      -1.2685800       1.4695800
N        0.9716600      -1.4872800       2.5366200
H       -2.4803200       2.6228300       2.1071100
H       -3.0705200       1.1818900       3.0011800
H       -1.5230100       1.9673300       3.4847100
H       -2.2347600      -0.5208500      -2.1303200
H       -3.2981600      -2.6308500      -0.8028700
H       -1.1429700      -4.1425000      -0.0693900
H        1.0076800      -2.7798300      -1.0110400
