20
dipolar_001415 reactant_2 (FRAG2 relaxed, reordered to d) type=dipolarophile
C        0.1216100      -0.6333400      -0.5844400
C        1.4611500      -1.1592500      -0.2194700
F        2.2731800      -0.2426600       0.3264100
F        2.1005500      -1.6628700      -1.2985500
F        1.3641000      -2.1805800       0.6672000
C       -1.9530000       0.4080500      -0.6903400
C       -2.6270800      -0.6794200       0.2092800
C       -1.9109100      -1.9878400      -0.2294900
C       -0.9101200      -1.4861200      -1.3189100
C       -1.7457700      -0.3827500      -1.9988200
C       -0.5161700       0.4911000      -0.2093000
Br       0.0654900       1.8866800       0.9147100
H       -2.4862400       1.3639100      -0.7421700
H       -2.5041100      -0.4546900       1.2781400
H       -1.3886500      -2.4925000       0.5944000
H       -2.6177800      -2.7033500      -0.6743000
H       -3.7046300      -0.7155300      -0.0062300
H       -0.4863200      -2.2710600      -1.9566800
H       -2.6877500      -0.7556700      -2.4275200
H       -1.1821700       0.1804200      -2.7563300
