40
dipolar_001415 TS complex (tags stripped)
C        4.4363000       1.2142400      -0.1247000
O        3.3616800       0.7081100       0.6585700
C        2.7763900      -0.4518600       0.2140600
O        3.1620700      -1.0057700      -0.8379200
C        1.7198700      -0.8656300       1.0351000
N        0.9497000      -1.9215100       0.6088700
C       -0.0462300      -2.5666200       1.1603900
C       -0.4780300      -2.3221900       2.5710300
C       -0.7011600      -3.6761700       0.4114300
C       -1.2940900       0.0612800       0.3967100
C       -2.0955600      -0.6827000      -0.6101900
F       -2.8083100       0.1792300      -1.3971700
F       -3.0144400      -1.5020400      -0.0484600
F       -1.3679800      -1.4325000      -1.4577700
C       -1.9407600       0.6647500       1.6477100
C       -2.4866300       2.0440700       1.1440700
C       -1.1859900       2.8436400       0.8351900
C       -0.0550400       1.8360300       1.2281200
C       -0.7092300       1.1436800       2.4379600
C       -0.2055900       0.7752600       0.1539800
Br       0.5664000       1.0655200      -1.5547700
H        4.8004300       2.1158600       0.4008200
H        4.1349600       1.4759400      -1.1421400
H        5.2559400       0.4716900      -0.1679300
H        1.5046000      -0.3915600       1.9770900
H        1.2070400      -2.2274700      -0.3383800
H       -0.3513500      -3.2857000       3.0718200
H       -1.5442100      -2.0362400       2.6839800
H        0.1287900      -1.5750800       3.1063600
H       -0.4412400      -3.6571300      -0.6449400
H       -1.8268200      -3.5726600       0.4786200
H       -0.4258100      -4.5733800       0.8962700
H       -2.6728700       0.0343500       2.1770100
H       -3.0469700       2.5136900       1.9135800
H       -3.1185100       1.9011100       0.2465600
H       -1.0637800       3.0710500      -0.2525400
H       -1.0835200       3.7187500       1.4016100
H        0.9557400       2.2446300       1.3885500
H       -0.9965500       1.8684600       3.2207400
H       -0.1246900       0.3439500       2.9189400
