28
dipolar_000783 reactant_1 (FRAG1 relaxed, reordered to d) type=dipole
C       -0.1781300       0.2850700       0.0740800
C       -0.5812300       1.7091900      -0.1646700
O        0.2706800       2.6077300      -0.2109700
N       -1.8992800       1.9592200      -0.2861700
C       -2.3957300       3.3062800      -0.4883700
C        2.1521900       0.1913400       0.9468100
C        3.5231600       0.1867200       0.4675000
C        4.0724600       1.5639600       0.2004900
C       -1.0248200      -0.9153900      -0.0748100
C       -0.8569000      -2.0004500       0.8080800
C       -1.9801100      -1.0220700      -1.1041400
N        1.0376900       0.1618900       0.4962600
C       -1.6314700      -3.1516100       0.6732300
C       -2.5887000      -3.2428500      -0.3437100
C       -2.7565400      -2.1758000      -1.2307900
O        4.1685500      -0.8504700       0.3733500
H       -2.5651800       1.2038100      -0.1668400
H       -3.4745700       3.2605300      -0.6804500
H       -2.2186900       3.9414100       0.3953900
H       -1.8996700       3.7794600      -1.3491800
H       -0.1175100      -1.9325000       1.6090800
H        4.8616600       1.4903500      -0.5614200
H        4.5170400       1.9576600       1.1301800
H        3.2796400       2.2551800      -0.1212300
H       -2.1017900      -0.2118700      -1.8239400
H       -3.1976800      -4.1438600      -0.4459200
H       -3.4903400      -2.2431200      -2.0372900
H       -1.4918300      -3.9808700       1.3706200
