65
dipolar_002814 TS complex (tags stripped)
C        5.4804700       3.7312000      34.8042700
O        6.0800800       5.0202900      34.6577200
C        7.2764500       5.1991700      35.2302300
O        7.8096400       4.4153500      35.9845600
N        7.7264700       6.5010800      34.8684500
O        8.9537100       6.7604300      35.3286400
N        9.8853000       5.9077900      34.7986200
C       11.1520100       6.4927700      35.0116300
C       12.2555900       5.6321300      34.8639600
C       13.5523700       6.1371400      34.9327000
C       13.7649900       7.4962900      35.1843200
C       12.6692000       8.3479400      35.3810000
C       11.3672000       7.8596500      35.2931500
C        9.0875100       5.9209900      32.8670700
C        7.9723900       6.4995500      33.0341700
C        6.7903500       7.0754500      32.2510200
O        7.3593600       8.0381000      31.3821000
C        6.4219700       8.6882900      30.4930100
O        5.8299700       7.6675500      33.0905400
C        6.2390200       8.8644200      33.7447700
C        6.0610700       5.9604700      31.4811400
C        6.8046900       5.3226700      30.3015700
C        7.8677800       4.2452100      30.5923500
C        9.3318600       4.7123000      30.6500100
C        9.9855000       5.0651400      32.0406300
C       10.1672700       3.7340300      32.8243800
O       11.2108400       3.1378000      32.9674500
O        9.0102000       3.2829100      33.2993200
C        9.0510000       2.0598300      34.0528100
C       11.3281000       5.7458900      31.7506300
C       12.4013500       5.0375100      31.1863700
C       13.6115700       5.6813000      30.9156500
C       13.7650900       7.0440600      31.1875900
C       12.6876900       7.7634200      31.7100500
C       11.4791100       7.1189200      31.9803900
H        5.4347800       3.4201800      35.8519200
H        6.0596900       3.0074700      34.2167500
H        4.4823800       3.8519600      34.3865000
H       12.0640500       4.5796400      34.6933900
H       14.3908900       5.4619700      34.7719600
H       14.7847500       7.8890300      35.1990800
H       12.8517600       9.4181700      35.5658200
H       10.5298500       8.5477900      35.4558100
H        5.4423900       8.9879700      30.9910700
H        6.8499100       9.6332900      30.0934900
H        6.1155100       8.0782300      29.6003500
H        5.5988100       8.9773900      34.6195500
H        6.1439500       9.7388500      33.0915800
H        7.2936700       8.7908900      34.0870300
H        5.1182600       6.4121100      31.0721500
H        5.7634800       5.2127700      32.1915900
H        7.2684700       6.1151800      29.6602800
H        6.0396200       4.8645700      29.6528100
H        7.5939700       3.6834200      31.4889500
H        7.8004600       3.5060200      29.7587800
H        9.9768000       3.8749300      30.2036600
H        9.4831700       5.5533700      29.9837300
H        9.4755500       1.2450800      33.4425000
H        9.6576000       2.1939900      34.9582300
H        8.0150600       1.8336900      34.3200500
H       12.3121500       3.9699800      30.9563100
H       14.4479600       5.1133800      30.4875400
H       14.7135400       7.5458000      30.9894600
H       12.7807000       8.8222000      31.9308800
H       10.6431700       7.6729000      32.3942400
