27
dipolar_002460 reactant_1 @ TS geom
C        1.6569500      -3.6402300       3.3513100
N        1.3686800      -3.1411200       2.0369800
C        1.7268800      -1.8984300       1.6543300
O        2.5026600      -1.1896700       2.2905500
C        1.1667000      -1.6888400       0.2500600
Cl       2.3885300      -2.1880500      -0.8965900
C       -0.1355400      -1.4547400      -0.0253600
C       -1.0252300      -1.2833300       1.2008400
O       -0.5300700      -0.9427200       2.2823800
N       -2.3247600      -1.5658400       1.0771200
C       -3.2445500      -1.2707800       2.1577300
C       -0.7830300      -1.5499300      -1.3921800
O       -2.0035800      -1.7510200      -1.5120500
N       -0.0193200      -1.3967900      -2.4772000
C       -0.6119900      -1.2662100      -3.7935900
H        1.3706800      -4.6874100       3.3471400
H        1.0733700      -3.0849500       4.0884300
H        2.7164600      -3.5307200       3.5527800
H        0.6468500      -3.5551400       1.4445600
H       -2.6610100      -1.7445100       0.1250100
H       -4.2626600      -1.5267800       1.8454500
H       -3.2178500      -0.1964500       2.4211600
H       -2.9980100      -1.8414700       3.0656800
H        0.9484300      -1.1232700      -2.3770000
H       -1.2328100      -0.3550000      -3.8585600
H       -1.2508400      -2.1290100      -4.0273100
H        0.1917700      -1.2020700      -4.5310000
