27
dipolar_002460 reactant_1 (FRAG1 relaxed, reordered to d) type=dipolarophile
C       -1.3817000       1.0548400       0.2179900
N       -0.2138500       0.4468900       2.8331600
C       -0.1077200       2.7176300      -1.1118900
O       -2.4239200       0.6252400       0.7236900
C       -0.0996800       0.2792100       0.4414300
Cl       1.7735900      -1.6169700       0.0274000
C        0.3729100      -0.6482900      -0.4046200
C       -0.2781000      -0.9293000      -1.7323500
O       -1.2499400      -0.2530500      -2.0885900
N        0.2330900      -1.9189500      -2.4758800
C       -0.3335100      -2.2556300      -3.7674900
C        0.5693000       0.6092800       1.7565200
O        1.7271800       1.0294200       1.8014400
N       -1.2676800       2.2555100      -0.3677700
C        0.2447300       0.7802700       4.1688000
H       -1.1778400       0.1580800       2.6858400
H       -2.1458400       2.7547200      -0.4956200
H        0.4662600       1.8559300       4.2582600
H       -0.5401200       0.5173400       4.8876100
H        1.0334300      -2.4390500      -2.1323100
H       -1.3950000      -2.5320900      -3.6716800
H       -0.2660300      -1.4047200      -4.4635600
H       -0.0656900       2.2721400      -2.1188000
H        0.8180500       2.4686000      -0.5767200
H        0.2206100      -3.1037900      -4.1859700
H        1.1594700       0.2219000       4.4190100
H       -0.1614900       3.8094300      -1.2101900
