18
dipolar_000155 reactant_2 @ TS geom
C        1.4307400       0.4671700       0.6702800
C        2.7200200       0.3883600      -0.0659300
C        3.4206200      -0.9248500      -0.3226900
O        3.2194500       1.4511900      -0.4186700
O        0.8899100      -0.6430900       1.2875900
C        0.1910400      -1.5516100       0.6323700
C       -0.5518500      -2.4724600       1.5280200
C        0.5179900      -1.9939100      -0.7522300
H        1.4827000       1.2872500       1.4343400
H        4.5131200      -0.7843200      -0.2177400
H        3.2535400      -1.2281600      -1.3851100
H        3.1050300      -1.7579900       0.3163000
H       -1.3776500      -2.8943100       0.9942500
H       -0.8271600      -1.9700000       2.4489300
H        0.1272700      -3.3467400       1.8095900
H        0.9364700      -1.1528400      -1.3605400
H        1.2746400      -2.8026100      -0.7519400
H       -0.3837100      -2.3580200      -1.2026100
