15
dipolar_000155 reactant_1 @ TS geom
C       -4.1451400      -1.0350300       1.3934500
O       -2.9843000      -0.2346700       1.0919100
C       -2.3319900      -0.5265900      -0.0579200
O       -2.7287700      -1.3850700      -0.8412500
C       -1.1131000       0.2151400      -0.1835000
C       -0.1273700       0.9887600      -0.3598700
C        0.4340700       2.1631800      -1.1109700
C        0.4920100       3.4825800      -0.3942400
O        0.8875000       2.0045500      -2.2365100
H       -4.5369100      -0.6842700       2.3807600
H       -3.8579100      -2.1201400       1.5355800
H       -4.9292400      -0.9843900       0.6494900
H        1.4221200       4.0165000      -0.7045300
H        0.5221500       3.3235900       0.7044100
H       -0.3678400       4.0664000      -0.6446800
