18
dipolar_000155 reactant_2 (FRAG2 relaxed, reordered to d) type=dipole
C       -1.6856600       0.5587100      -0.0789200
C       -2.2162900       1.9375400       0.0064100
C        2.3824700       0.7069800       0.2507500
O       -0.4142400       0.4317600       0.0089100
O        2.4331000      -1.6783300       0.0315300
C        0.3163600      -0.7245600      -0.0406300
C       -2.5421300      -0.6302400      -0.2558900
C        1.7131100      -0.6443800       0.0734500
H       -2.3909800      -1.3357600       0.5822500
H        1.6877500       1.5558500       0.2745300
H       -1.4075600       2.6678900       0.1369600
H        3.1026200       0.8539800      -0.5708000
H       -2.2538300      -1.1722400      -1.1759200
H       -0.2179200      -1.6637400      -0.1693700
H       -3.5996900      -0.3472300      -0.3124200
H       -2.7891300       2.1750500      -0.9072700
H       -2.9272500       2.0136600       0.8478800
H        2.9649200       0.6920300       1.1865000
