33
dipolar_000155 TS complex (tags stripped)
C       -4.1451400      -1.0350300       1.3934500
O       -2.9843000      -0.2346700       1.0919100
C       -2.3319900      -0.5265900      -0.0579200
O       -2.7287700      -1.3850700      -0.8412500
C       -1.1131000       0.2151400      -0.1835000
C       -0.1273700       0.9887600      -0.3598700
C        0.4340700       2.1631800      -1.1109700
C        0.4920100       3.4825800      -0.3942400
O        0.8875000       2.0045500      -2.2365100
C        1.4307400       0.4671700       0.6702800
C        2.7200200       0.3883600      -0.0659300
C        3.4206200      -0.9248500      -0.3226900
O        3.2194500       1.4511900      -0.4186700
O        0.8899100      -0.6430900       1.2875900
C        0.1910400      -1.5516100       0.6323700
C       -0.5518500      -2.4724600       1.5280200
C        0.5179900      -1.9939100      -0.7522300
H       -4.5369100      -0.6842700       2.3807600
H       -3.8579100      -2.1201400       1.5355800
H       -4.9292400      -0.9843900       0.6494900
H        1.4221200       4.0165000      -0.7045300
H        0.5221500       3.3235900       0.7044100
H       -0.3678400       4.0664000      -0.6446800
H        1.4827000       1.2872500       1.4343400
H        4.5131200      -0.7843200      -0.2177400
H        3.2535400      -1.2281600      -1.3851100
H        3.1050300      -1.7579900       0.3163000
H       -1.3776500      -2.8943100       0.9942500
H       -0.8271600      -1.9700000       2.4489300
H        0.1272700      -3.3467400       1.8095900
H        0.9364700      -1.1528400      -1.3605400
H        1.2746400      -2.8026100      -0.7519400
H       -0.3837100      -2.3580200      -1.2026100
