! wB97X-3c Opt TightSCF
%pal nprocs 8 end
%maxcore 4000
%geom
  Scan B 0 11 = 3.0, 1.9, 12 end
end
* xyzfile 0 1 reactant.xyz
