22
dipolar_002497 reactant_1 (FRAG1 relaxed, reordered to d) type=dipole
C        0.0430700       3.5550700       0.0648400
N        1.3989100      -0.2534500       0.0824300
C        0.0573400      -0.0905000       0.0061600
O        0.4899500       2.1976200       0.0688100
C       -0.7192700      -1.3346300      -0.0641600
C        2.5394300      -0.4483100       0.1462800
O       -0.1599200      -2.4492200      -0.0494800
O       -1.6691200       1.5372600      -0.0663800
C       -2.9268200      -2.3643700      -0.2267900
N       -2.0630600      -1.2079300      -0.1461900
C       -0.4711500       1.2438300      -0.0021500
C        3.9622100      -0.6737700       0.2166500
H        4.4805100       0.1671900      -0.2710000
H        0.9485100       4.1719000       0.1189400
H       -0.5114200       3.7855300      -0.8572700
H       -0.6015600       3.7612700       0.9325700
H       -2.7038900      -2.9811200      -1.1134700
H       -2.8284000      -3.0128600       0.6598900
H       -3.9683300      -2.0250800      -0.2935800
H       -2.4422500      -0.2631100      -0.1530600
H        4.2983500      -0.7612000       1.2614400
H        4.2042600      -1.5993200      -0.3297500
