59
dipolar_002497 TS complex (tags stripped)
C       -2.8216000      -0.9351400       3.0672100
N       -2.1504600      -1.1561700       1.8036500
C       -2.7488300      -0.8002200       0.6469200
O       -3.9106700      -0.3551200       0.6055700
C       -1.9828800      -0.9955900      -0.5971100
C       -2.4325300      -0.4479700      -1.8654000
O       -3.0772300       0.5835500      -1.9986200
O       -2.0610000      -1.2152800      -2.9099900
C       -2.3772700      -0.7219700      -4.2116200
N       -0.9483900      -1.8122400      -0.6034700
C        0.0944000      -2.4023900      -0.5148600
C        1.0597200      -3.4567900      -0.4278300
C        1.2988100      -0.0916000       0.0466700
C        2.3581200      -0.3622500      -1.0089400
O        3.5247100      -0.0671400      -0.6680000
N        2.0881400      -0.8473400      -2.2311200
C        3.1047500      -0.7896500      -3.2723300
C        1.5295500      -0.7862000       1.3930100
O        0.6184400      -1.2503800       2.1045100
N        2.8064300      -0.8253100       1.7993500
C        3.1784600      -1.2618600       3.1240500
C        0.3264100       0.7930000      -0.0918300
C       -0.0111300       1.4013400      -1.4406900
O       -0.0036500       0.7659000      -2.5051700
N       -0.2944500       2.7125200      -1.4291700
C       -0.6715200       3.4102800      -2.6388100
C       -0.2415100       1.4922900       1.1027700
C       -1.5731300       1.9250400       1.2027200
C       -1.9963700       2.6641600       2.3089100
C       -1.0981700       2.9899100       3.3304400
C        0.2356700       2.5861900       3.2289800
C        0.6585300       1.8565200       2.1210000
H       -2.9775800       0.1368600       3.2734900
H       -2.2118000      -1.3624500       3.8736700
H       -3.8093400      -1.4265000       3.0756900
H       -1.1219500      -1.2483200       1.8353000
H       -3.4670200      -0.5864800      -4.3149200
H       -1.8662700       0.2264600      -4.3968100
H       -2.0289100      -1.4918600      -4.9083000
H        0.7451700      -3.9889100       0.4374500
H        0.9223500      -3.9611700      -1.3436900
H        2.1141300      -3.1036200      -0.3102500
H        1.1189500      -0.7595500      -2.5383900
H        4.0413600      -1.2516500      -2.9271900
H        3.3351400       0.2586800      -3.5611000
H        2.7535400      -1.3233200      -4.1637600
H        3.4679500      -0.4265200       1.1336100
H        4.2691900      -1.1972100       3.2059600
H        2.8523200      -2.2846700       3.3113400
H        2.7259600      -0.6049700       3.8911000
H       -0.3197900       3.1963700      -0.5398700
H       -0.8475000       4.4592800      -2.3882200
H       -1.5853800       2.9780900      -3.0686800
H        0.1277500       3.3472200      -3.3929100
H       -2.2842200       1.6920100       0.4168800
H       -3.0341300       2.9889000       2.3706600
H       -1.4250100       3.5660200       4.1955200
H        0.9613800       2.8490000       3.9974300
H        1.7131500       1.5756200       2.0271500
