28
dipolar_001090 reactant_1 (FRAG1 relaxed, reordered to d) type=dipole
C       -0.4354200      -1.3402300      -0.3205700
N        0.9675100       0.6541900      -0.4970300
C       -0.2883300       0.1189600      -0.1723000
O        0.5186500      -2.0731600      -0.6572800
C        2.0753800       0.1140800      -0.0269100
C        1.0858500       1.6810200      -1.5502700
O       -0.9747100       2.2930600       0.3175700
O       -2.5549200       0.6849300       0.2946000
C       -2.0014400       3.2508500       0.5840200
C        1.9909400      -0.7079100       1.1377800
C       -1.3709700       1.0081600       0.1426400
C        3.4228100       0.3809000      -0.6086800
N        2.0231500      -1.3171600       2.1289600
N       -1.6663100      -1.8524800      -0.0961400
C       -1.9582800      -3.2478400      -0.3379900
H        3.4384400       0.1170500      -1.6785100
H        1.5824400       1.2309600      -2.4218000
H       -1.9747200      -3.4957100      -1.4141400
H        4.1872600      -0.2021900      -0.0827200
H        0.0865400       2.0112400      -1.8371100
H       -1.4941200       4.2188100       0.6769300
H       -2.7304900       3.2871500      -0.2393600
H       -2.4165600      -1.1821100       0.0697600
H       -2.5274500       3.0122400       1.5202600
H       -1.2046900      -3.8914400       0.1398200
H       -2.9429400      -3.4846400       0.0857200
H        1.6799800       2.5299500      -1.1892300
H        3.6720400       1.4513600      -0.5249600
