46
dipolar_001090 TS complex (tags stripped)
C        3.8352400      -2.4336300       0.1068300
N        2.5432000      -1.7846400       0.1317500
C        2.3676400      -0.5309300      -0.2775500
O        3.2666900       0.1976800      -0.6937800
C        0.8723200       0.0064800      -0.1615400
C        1.1531100       1.3927500       0.4984600
O        1.2865300       1.4921200       1.7038900
O        1.3066900       2.4013500      -0.3437400
C        1.4504700       3.7141900       0.2514900
C       -0.2181300      -0.8677200       0.8141600
O       -0.0258800      -2.2669500       0.5941700
C       -0.4838600      -3.1854000       1.6015300
C       -1.6564500      -0.4891700       0.4729000
O       -2.4289700      -1.5214300      -0.0202800
C       -3.8204500      -1.2280700      -0.2293000
O       -2.3992500       0.2987900       1.2937400
C       -1.9095300       0.8998500       2.4986200
C       -1.0691500       0.5581600      -1.3781000
C       -1.9525800       0.2442100      -2.5696900
C       -1.3379300       1.8231700      -0.7866000
N       -1.7297200       2.7541600      -0.1848600
N        0.3178900       0.1414700      -1.4960700
C        0.5833600      -0.9544500      -2.4245700
H        3.7185700      -3.4117500       0.5970800
H        4.5747400      -1.8422600       0.6565600
H        4.1973400      -2.5879300      -0.9159400
H        1.6761600      -2.2671200       0.3586800
H        2.3310600       3.7597300       0.9093500
H        0.5444200       3.9707100       0.8481400
H        1.5531000       4.4476300      -0.5644200
H        0.0236600      -0.6245800       1.9217500
H       -1.5674100      -3.2214100       1.7038300
H       -0.1504500      -4.2188300       1.2337000
H       -0.0046300      -3.0300400       2.5745100
H       -4.2072100      -1.9904800      -0.9174800
H       -3.9828100      -0.2242200      -0.6744400
H       -4.3854100      -1.2732000       0.7208400
H       -2.7001900       1.6160700       2.8280300
H       -1.7722400       0.1443500       3.2821700
H       -0.9900400       1.4488100       2.3207400
H       -1.5296200       0.5241000      -3.5926600
H       -2.8898500       0.7843700      -2.4824200
H       -2.1502000      -0.8269500      -2.6053800
H        0.0612000      -1.8945400      -2.1552700
H        1.6594400      -1.1477500      -2.4640100
H        0.2715400      -0.6593100      -3.4323800
