21
dipolar_000206 reactant_2 (FRAG2 relaxed, reordered to d) type=dipole
C       -0.9726500      -0.1593900      -0.0316200
C       -1.5062100       2.3122400      -0.2252600
C       -1.9950700       0.8853200      -0.1382300
O       -3.1960100       0.6181700      -0.1558000
C        1.4565500       0.3908900       0.0055600
C       -1.1642100      -1.6196400       0.0652100
O       -0.1828200      -2.3578400       0.1598400
N        0.3012100       0.2127800      -0.0144100
C        2.8788600       0.6671500       0.0793500
C        3.7521600      -0.5475000       0.1339300
C       -2.5622200      -2.1724100       0.0465700
O        3.2601300       1.8266100       0.0720700
H       -0.8436200       2.4446600      -1.0955900
H       -2.3697400       2.9833800      -0.3136500
H       -0.9229000       2.5777300       0.6713800
H        3.9857700      -0.8471600      -0.9024800
H       -3.0860400      -1.8744300      -0.8736800
H       -2.5063200      -3.2668900       0.1159900
H        3.2436300      -1.3900900       0.6246800
H       -3.1483500      -1.7681200       0.8854800
H        4.6899100      -0.2962800       0.6487900
