29
dipolar_000206 TS complex (tags stripped)
C        1.1216200       3.7657300      -0.6543300
O        1.3131100       2.3217200      -0.7559800
C        0.2104400       1.8066200      -0.2501900
C       -0.8233800       1.5066300       0.2260800
Cl      -2.3717000       1.3917600       0.8792900
C       -0.5010300      -1.5365700       0.3238900
C       -0.1210100      -1.2954900       1.7339700
C       -1.1666600      -1.4768500       2.7963200
O        1.0294200      -0.9570900       2.0111200
C       -1.8077500      -1.8673200      -0.2366700
C       -1.8874200      -2.0214200      -1.7374800
O       -2.7979300      -2.0029700       0.4803800
N        0.4282300      -1.1158100      -0.4993400
C        1.4204000      -0.5750400      -0.9276900
C        2.6866400      -0.2442700      -1.4874200
C        3.7482600       0.1043200      -0.4946900
O        2.7897400      -0.2716800      -2.7103400
H        0.9438900       4.0016300       0.4290200
H        1.9589100       4.2344400      -1.0452700
H        0.1731300       4.0205800      -1.2009800
H       -1.5897900      -2.4827000       2.7238400
H       -2.0033200      -0.7708400       2.6444600
H       -0.7063700      -1.3104300       3.7737700
H       -1.6624000      -1.0699100      -2.2419900
H       -2.8940700      -2.3563000      -2.0102300
H       -1.1408900      -2.7586600      -2.0842700
H        4.7115600       0.0452600      -0.9932300
H        3.6850000      -0.5929500       0.3604400
H        3.5719100       1.1185800      -0.0998800
