31
dipolar_002762 reactant_2 @ TS geom
C       -0.2597600      -1.0118700      -0.3855900
O       -0.7151300      -1.9556500       0.5417800
C        0.0218400      -3.1771300       0.6295600
C       -0.1733200      -1.6170400      -1.8272700
C       -1.5375000      -2.2809400      -2.1971100
C       -2.4772400      -1.0651100      -2.4293500
C       -1.5511100       0.1436900      -2.1048100
C       -0.2293200      -0.3597800      -2.7055700
C       -1.2589000       0.1290700      -0.5935000
C       -2.3864900       0.3991500       0.3221600
C       -2.3879300       0.0234200       1.6867400
C       -3.4542800       0.3554600       2.5256600
C       -4.5473900       1.0766400       2.0393200
C       -4.5656000       1.4658200       0.6943400
C       -3.5050100       1.1355200      -0.1458400
H       -0.2288400      -3.8796600      -0.1976900
H       -0.2194300      -3.6718900       1.5803700
H        1.1129300      -2.9978100       0.5982900
H        0.6518100      -2.3165800      -1.9530000
H       -1.9496500      -2.9871000      -1.4869400
H       -1.4278000      -2.8774600      -3.1815500
H       -2.8052800      -0.9826500      -3.5272000
H       -3.4030700      -1.1031400      -1.8582900
H       -1.9211900       1.0952100      -2.4766200
H        0.5981400       0.3048500      -2.5250400
H       -0.3055100      -0.5913200      -3.7668100
H       -1.5619600      -0.5377300       2.0928500
H       -3.4300900       0.0617000       3.5834400
H       -5.3816400       1.3514300       2.7095000
H       -5.4133000       2.0504500       0.3087200
H       -3.5514400       1.4575700      -1.1811600
