35
dipolar_002762 reactant_1 (FRAG1 relaxed, reordered to d) type=dipole
C        2.7863500      -0.6713200       1.6423500
N        3.6381100      -0.9468700       2.3984800
C        1.8184400      -0.3064600       0.6922700
O        1.4257600       0.3485000      -1.5615500
C        0.2463300      -1.7611900       1.8520300
C       -0.5280200       0.0057100       0.3580400
N        0.4892500      -0.6281800       0.9339100
N        3.5516300       0.4546600      -0.7893900
C       -1.8542400      -0.6129200       0.2249100
C       -1.9853500      -1.9302200      -0.2566800
C       -0.3410600       1.4188100      -0.1024100
O       -1.1352300       1.7089400      -1.1301000
O        0.3705300       2.2329400       0.4534200
C       -1.0686600       3.0517000      -1.6307500
C       -3.0166800       0.1173900       0.5420500
C       -3.2474100      -2.5049000      -0.4029000
C       -4.3947500      -1.7772700      -0.0709200
C       -4.2748000      -0.4650900       0.4010100
C        2.2340200       0.1913100      -0.6263200
C        4.0906100       0.8293300      -2.0806900
H        4.2020700       0.2272500      -0.0445700
H        5.1137100       1.2014400      -1.9438900
H        0.8529500      -1.5986800       2.7518800
H        0.5499300      -2.7021200       1.3765500
H       -0.8074900      -1.7920600       2.1362300
H       -2.9293300       1.1399200       0.9143100
H       -1.0950100      -2.4955200      -0.5363500
H       -0.0503700       3.2716400      -1.9824700
H       -1.3516400       3.7698400      -0.8480800
H        3.4807100       1.6244600      -2.5331200
H       -3.3353200      -3.5242400      -0.7852900
H       -5.3824000      -2.2296500      -0.1854700
H       -5.1676900       0.1074500       0.6615500
H       -1.7784200       3.0973300      -2.4644000
H        4.1173700      -0.0196600      -2.7853100
