25
dipolar_000517 reactant_2 @ TS geom
C       -0.4663900      -1.9447200       0.0176800
C       -1.0111800      -2.0981800       1.4503300
C       -1.0352300      -3.1019100      -0.8312100
C       -0.5777800      -0.5107400      -0.6696000
C       -1.0236900      -0.5704100      -2.1464500
C       -1.4291600       0.5896800       0.0021800
C       -2.5084300       0.4286900       0.8979300
C       -3.1854300       1.5381300       1.4284300
C       -2.8246200       2.8370000       1.0670900
C       -1.7997700       3.0141800       0.1339000
C       -1.1317800       1.9111400      -0.3921000
H       -0.8391000      -1.2105400       2.0754100
H       -2.0909800      -2.3663700       1.5441900
H       -0.4463900      -2.9364600       1.8566500
H       -0.7907200      -4.0366600      -0.2872500
H       -0.5312900      -3.1425000      -1.8036300
H       -2.1229800      -3.0997000      -1.0119100
H       -0.9060500       0.4279200      -2.5861100
H       -2.0889900      -0.8634900      -2.3168300
H       -0.4042800      -1.2676700      -2.7182300
H       -2.8752500      -0.5474400       1.1984600
H       -4.0139100       1.3950900       2.1442500
H       -3.3384100       3.7125100       1.4886500
H       -1.5034300       4.0142200      -0.1883400
H       -0.3483500       2.0698500      -1.1230500
