25
dipolar_000517 reactant_2 (FRAG2 relaxed, reordered to d) type=dipolarophile
C       -0.7384400       2.4344800       0.0849500
C        0.1757100      -0.3918800      -0.1092000
C       -1.2453600       1.3367800       0.9886300
C       -0.8631000       0.0415500       0.8749100
C       -2.2382200       1.8375800       2.0064200
C        1.4751400       0.1462600      -0.0774400
C       -0.1047100      -1.3866200      -1.0642000
C        0.8716700      -1.8119900      -1.9687400
C        2.4551300      -0.2811200      -0.9773900
C       -1.4101000      -1.0892600       1.7143300
C        2.1568500      -1.2612500      -1.9291300
H       -0.1936700       2.0634600      -0.7920300
H       -1.1052700      -1.8234600      -1.1084100
H       -1.5853600       3.0474900      -0.2695200
H       -0.0711900       3.1223300       0.6343700
H       -3.1607500       2.1871700       1.5088900
H       -2.5209200       1.0948400       2.7621900
H       -1.8251700       2.7158400       2.5329500
H       -2.1828800      -0.7711400       2.4245200
H       -0.6001400      -1.5775800       2.2839300
H        0.6270000      -2.5776200      -2.7093600
H        2.9219000      -1.5966200      -2.6335300
H       -1.8495700      -1.8720500       1.0733400
H        1.7181200       0.9062600       0.6684900
H        3.4580100       0.1510300      -0.9317500
