42
dipolar_000517 TS complex (tags stripped)
C        1.5017900       0.6728500       3.0863200
N        1.5355400      -0.0062500       1.8047800
C        1.5190300       0.6750300       0.6510900
O        1.6519500       1.9019400       0.5870700
C        1.2191600      -0.1493400      -0.6282300
C        1.6575900       0.6249400      -1.7906100
N        1.9296300       1.2166600      -2.7549300
N        1.8647300      -1.4571900      -0.6030700
C        2.2128100      -2.1277600      -1.8529800
O        0.9246100      -2.1954300       0.2157100
C       -0.4663900      -1.9447200       0.0176800
C       -1.0111800      -2.0981800       1.4503300
C       -1.0352300      -3.1019100      -0.8312100
C       -0.5777800      -0.5107400      -0.6696000
C       -1.0236900      -0.5704100      -2.1464500
C       -1.4291600       0.5896800       0.0021800
C       -2.5084300       0.4286900       0.8979300
C       -3.1854300       1.5381300       1.4284300
C       -2.8246200       2.8370000       1.0670900
C       -1.7997700       3.0141800       0.1339000
C       -1.1317800       1.9111400      -0.3921000
H        0.5641800       1.2507500       3.2101400
H        1.5581400      -0.0722700       3.8888500
H        2.3423800       1.3704800       3.1844400
H        1.3667400      -1.0125800       1.7524500
H        2.5666700      -3.1408100      -1.5857100
H        3.1010900      -1.5941900      -2.2934600
H        1.4433100      -2.1962700      -2.6146400
H       -0.8391000      -1.2105400       2.0754100
H       -2.0909800      -2.3663700       1.5441900
H       -0.4463900      -2.9364600       1.8566500
H       -0.7907200      -4.0366600      -0.2872500
H       -0.5312900      -3.1425000      -1.8036300
H       -2.1229800      -3.0997000      -1.0119100
H       -0.9060500       0.4279200      -2.5861100
H       -2.0889900      -0.8634900      -2.3168300
H       -0.4042800      -1.2676700      -2.7182300
H       -2.8752500      -0.5474400       1.1984600
H       -4.0139100       1.3950900       2.1442500
H       -3.3384100       3.7125100       1.4886500
H       -1.5034300       4.0142200      -0.1883400
H       -0.3483500       2.0698500      -1.1230500
