19
dipolar_000541 reactant_2 (FRAG2 relaxed, reordered to d) type=dipolarophile
C       -0.1384800       0.0153300       0.2016400
C       -0.0330700      -1.3146600       0.0628800
F       -2.3632700       0.3562400      -0.5248500
F       -0.8522600       1.7835100      -1.1491300
F       -1.5395800       1.7655100       0.8994000
C       -1.2233000       0.9573800      -0.1392400
C       -0.9455700      -2.3776100      -0.4220800
C        1.2706200       0.5029500       0.6302000
C        1.4492100      -1.6017400       0.4406500
O        1.6609600      -0.6058200       1.4556800
C        2.2028100       0.2949500      -0.5840100
C        2.3129800      -1.0316400      -0.7048000
H       -1.9387600      -1.9963200      -0.6865100
H       -1.0521000      -3.1667000       0.3413300
H        1.6699500      -2.6151100       0.7933100
H        1.3233900       1.4606300       1.1588100
H        2.8262400      -1.6259800      -1.4597700
H       -0.5004200      -2.8624300      -1.3090600
H        2.6028200       1.0909100      -1.2110500
