19
dipolar_000541 reactant_2 @ TS geom
C       -0.9508500       0.2632000       0.2223600
C       -1.7819800      -0.1460700       1.3666600
F       -2.4715400      -1.2891200       1.1673100
F       -1.1065000      -0.2969700       2.5279700
F       -2.7282200       0.8197700       1.6031300
C       -1.4354800       0.0731500      -1.2354400
C       -2.2066800       1.3852600      -1.5416900
C       -1.2652600       2.3316800      -1.5954500
C        0.0593800       1.5811800      -1.3162800
O       -0.2087400       0.3169000      -1.9357900
C       -0.0733900       1.2306000       0.1872400
C        0.4070100       2.1572200       1.2543700
H       -1.9060500      -0.8756100      -1.5478200
H       -3.2732300       1.4716400      -1.5413300
H       -1.3379400       3.3973600      -1.6487400
H        0.9996400       2.0142000      -1.6998100
H        0.3445800       1.7005200       2.2498000
H       -0.3487700       2.9516900       1.1963900
H        1.3843900       2.5834300       1.0939000
