17
dipolar_000541 reactant_1 @ TS geom
C        3.8839400       1.4944700      -0.1851800
C        3.0109500       0.3812100      -0.7008700
O        2.9090500       0.1607800      -1.9254400
C        2.2718500      -0.4267400       0.2583900
C        2.3311900      -0.2962000       1.7436100
N        1.4419200      -1.2969600      -0.3210900
C        0.5310400      -2.1110400       0.2482900
C       -0.3217700      -2.8890200      -0.5434600
N       -1.0548200      -3.5574600      -1.1761300
H        3.2934900       2.2621100       0.3638300
H        4.3959500       1.9797600      -1.0253000
H        4.6152700       1.0950700       0.5242500
H        3.0185500      -1.0644900       2.0644200
H        1.3736800      -0.4198400       2.2700400
H        2.7357400       0.6914700       2.0481400
H        1.5080000      -1.2988800      -1.3458200
H        0.3417600      -2.0236700       1.3207900
