36
dipolar_000541 TS complex (tags stripped)
C        3.8839400       1.4944700      -0.1851800
C        3.0109500       0.3812100      -0.7008700
O        2.9090500       0.1607800      -1.9254400
C        2.2718500      -0.4267400       0.2583900
C        2.3311900      -0.2962000       1.7436100
N        1.4419200      -1.2969600      -0.3210900
C        0.5310400      -2.1110400       0.2482900
C       -0.3217700      -2.8890200      -0.5434600
N       -1.0548200      -3.5574600      -1.1761300
C       -0.9508500       0.2632000       0.2223600
C       -1.7819800      -0.1460700       1.3666600
F       -2.4715400      -1.2891200       1.1673100
F       -1.1065000      -0.2969700       2.5279700
F       -2.7282200       0.8197700       1.6031300
C       -1.4354800       0.0731500      -1.2354400
C       -2.2066800       1.3852600      -1.5416900
C       -1.2652600       2.3316800      -1.5954500
C        0.0593800       1.5811800      -1.3162800
O       -0.2087400       0.3169000      -1.9357900
C       -0.0733900       1.2306000       0.1872400
C        0.4070100       2.1572200       1.2543700
H        3.2934900       2.2621100       0.3638300
H        4.3959500       1.9797600      -1.0253000
H        4.6152700       1.0950700       0.5242500
H        3.0185500      -1.0644900       2.0644200
H        1.3736800      -0.4198400       2.2700400
H        2.7357400       0.6914700       2.0481400
H        1.5080000      -1.2988800      -1.3458200
H        0.3417600      -2.0236700       1.3207900
H       -1.9060500      -0.8756100      -1.5478200
H       -3.2732300       1.4716400      -1.5413300
H       -1.3379400       3.3973600      -1.6487400
H        0.9996400       2.0142000      -1.6998100
H        0.3445800       1.7005200       2.2498000
H       -0.3487700       2.9516900       1.1963900
H        1.3843900       2.5834300       1.0939000
