27
dipolar_001824 reactant_2 (FRAG2 relaxed, reordered to d) type=dipolarophile
C       -0.2938700      -0.3403600      -0.2789100
C       -1.8095700       0.9537600      -1.7530700
C        1.1571700      -0.1398300      -0.2736600
C        1.8077600       0.3037300      -1.4448900
C        3.1878800       0.5121400      -1.4661300
C       -1.1366100      -0.4425600      -1.5562100
C       -2.8243000       1.0174400      -0.5752300
C       -1.2080700      -0.2955000       0.7204600
C        1.9483800      -0.3868500       0.8690400
C       -2.3371100      -1.2742800      -1.0652800
C       -2.6059100      -0.3549200       0.1409200
C        3.3283000      -0.1851200       0.8411900
C        3.9563300       0.2699900      -0.3235500
Cl      -0.9662300       0.0856400       2.4008500
H        1.4796600      -0.7529800       1.7818000
H       -1.0702000       1.7665600      -1.7289200
H        1.2254000       0.4996600      -2.3464400
H       -2.3218900       0.9922200      -2.7260200
H       -0.5977600      -0.8177400      -2.4344300
H       -3.3939200      -0.6406700       0.8479600
H        3.9196700      -0.3899300       1.7370900
H       -2.0628300      -2.2983900      -0.7732800
H        3.6657900       0.8646200      -2.3834500
H       -3.1699200      -1.2982200      -1.7848200
H       -3.8607400       1.0921000      -0.9367700
H       -2.6429800       1.8588800       0.1086400
H        5.0370000       0.4294500      -0.3412400
