22
dipolar_001824 reactant_1 (FRAG1 relaxed, reordered to d) type=dipole
C        1.3978200      -2.9657900       2.1644100
N        0.6552400      -2.1980600       1.1891500
C        0.8129500      -0.8673300       1.0819400
O        1.5939900      -0.2164300       1.8028000
C        0.0065200      -0.1894300       0.0513900
C       -0.9529500      -0.8374500      -0.8684300
O        0.1072200       1.1089300      -0.1129100
N        0.4613300       4.4418700      -0.4398300
C        0.5994400       3.3487300      -0.0503600
O       -1.1620900      -2.0660000      -0.8214900
C       -2.5437700      -0.5776600      -2.6950300
C        0.8025500       2.0517900       0.4547100
N       -1.5843500      -0.0416000      -1.7509100
H        1.1118000      -4.0209200       2.0769700
H        2.4847400      -2.8790700       2.0024400
H        1.1858000      -2.6253900       3.1911600
H       -0.0136500      -2.6306500       0.5477700
H        1.4899600       1.8159100       1.2642600
H       -1.3792200       0.9515000      -1.7586300
H       -2.9327500       0.2448300      -3.3068700
H       -2.0789900      -1.3247800      -3.3580600
H       -3.3855000      -1.0641400      -2.1769600
