37
dipolar_002052 reactant_2 (FRAG2 relaxed, reordered to d) type=dipolarophile
C        1.0448200      -0.0021800       3.6700200
N        0.9867500      -0.3921200       2.2749700
C        1.2775400       0.4681100       1.2858200
O        1.8166400       1.5686300       1.4903000
C        0.9495500       0.0038200      -0.1073400
C        2.0362500       0.0364800      -1.1457100
C       -0.3036800      -0.3826800      -0.4432200
C        4.1594100       1.0123700      -1.8334200
C       -0.6413900      -0.9759100      -1.7972800
C       -1.4761300      -0.2641700       0.4611500
C       -1.6976500       0.9288300       1.1753100
C       -2.7978100       1.0505900       2.0243400
C       -0.7687800       1.3137400      -2.7650300
O        1.9581200      -0.6390100      -2.1814300
N       -0.9931500      -0.1206700      -2.7724300
C       -2.3940400      -1.3208800       0.5979000
C       -3.6943600      -0.0131800       2.1709100
O       -0.7183500      -2.2043700      -1.9096900
N        3.0768900       0.8458000      -0.8865800
C       -3.4891200      -1.1964400       1.4547400
H        0.4682600      -1.2314200       2.0353000
H        1.0566100      -0.9019700       4.2976500
H        1.9558200       0.5804200       3.8596600
H        0.1725700       0.6148900       3.9481000
H       -0.9544800       1.7283300      -1.7657500
H        4.5755900       0.0366000      -2.1252800
H        4.9511800       1.6117700      -1.3676200
H        3.0107700       1.4411800      -0.0613700
H       -1.0096300       1.7672000       1.0541800
H       -1.4674300       1.7895200      -3.4658300
H        0.2599600       1.5715200      -3.0667400
H       -1.2041500      -0.5608000      -3.6658800
H       -2.9585900       1.9837100       2.5689800
H       -2.2325800      -2.2451700       0.0424600
H       -4.1862000      -2.0305300       1.5630300
H       -4.5542600       0.0822300       2.8378400
H        3.8231500       1.5230000      -2.7516300
