15
dipolar_002052 reactant_1 @ TS geom
O       -0.1665300      -1.9243800      -1.6680900
N       -1.0794400      -2.0800000      -0.8764800
C       -1.0116800      -3.2867600      -0.0312300
C       -2.0870200      -1.1903800      -0.8056600
C       -3.0055100      -1.3217400       0.2699400
N       -3.7723200      -1.3744400       1.1460000
C       -2.5648000      -0.4638900      -2.0490700
C       -4.0136000      -0.0494200      -2.0156900
O       -1.9095300      -0.4560000      -3.0710900
H       -0.4477100      -3.0032600       0.8814900
H       -0.4601500      -4.0408100      -0.5956100
H       -2.0001700      -3.6216900       0.2190900
H       -4.2880300       0.4742800      -1.0937800
H       -4.6231500      -0.9691700      -2.0824000
H       -4.2245400       0.5781100      -2.8897700
