52
dipolar_002052 TS complex (tags stripped)
C        3.1285700       0.7086100      -3.2924500
N        2.5048200       0.1631500      -2.1068200
C        1.2189200       0.4301300      -1.8018600
O        0.5099300       1.1132900      -2.5557000
C        0.7391100      -0.0431200      -0.4504200
C        1.7222500      -0.8215600       0.3689000
C        2.2717000      -0.0024600       1.3677500
C        3.3004000      -0.4540900       2.1822800
C        3.8034900      -1.7466900       2.0118300
C        3.2730200      -2.5723300       1.0157400
C        2.2417300      -2.1153000       0.1863700
O       -0.1665300      -1.9243800      -1.6680900
N       -1.0794400      -2.0800000      -0.8764800
C       -1.0116800      -3.2867600      -0.0312300
C       -2.0870200      -1.1903800      -0.8056600
C       -3.0055100      -1.3217400       0.2699400
N       -3.7723200      -1.3744400       1.1460000
C       -2.5648000      -0.4638900      -2.0490700
C       -4.0136000      -0.0494200      -2.0156900
O       -1.9095300      -0.4560000      -3.0710900
C       -0.3973400       0.4229200       0.0460800
C       -0.7841200       0.1178200       1.4786300
O       -0.6496700      -1.0034700       1.9851500
N       -1.2530700       1.1570200       2.1978700
C       -1.5894900       1.0075800       3.5981900
C       -1.0007800       1.6979700      -0.5220400
O       -2.0981800       1.8406000      -1.0614700
N       -0.2028300       2.7464500      -0.2139000
C       -0.4516100       4.0629800      -0.7501900
H        3.0872200       1.8126600      -3.2866100
H        2.6292800       0.3567500      -4.2030300
H        4.1796800       0.3964300      -3.3120400
H        3.0522900      -0.4058300      -1.4684600
H        1.8635500       1.0074700       1.4680800
H        3.6922800       0.2159400       2.9333600
H        4.6080300      -2.0925500       2.6556000
H        3.6760300      -3.5824300       0.8847600
H        1.8484200      -2.7769300      -0.5900100
H       -0.4477100      -3.0032600       0.8814900
H       -0.4601500      -4.0408100      -0.5956100
H       -2.0001700      -3.6216900       0.2190900
H       -4.2880300       0.4742800      -1.0937800
H       -4.6231500      -0.9691700      -2.0824000
H       -4.2245400       0.5781100      -2.8897700
H       -1.2417200       2.0865800       1.7893900
H       -0.7004800       0.7610900       4.2043400
H       -2.3264500       0.2060300       3.7313300
H       -2.0126100       1.9521200       3.9591200
H        0.7357800       2.5155900       0.1153800
H        0.2306300       4.7659900      -0.2654100
H       -1.4858400       4.3564900      -0.5499900
H       -0.2812500       4.0750000      -1.8378000
