16
dipolar_001418 reactant_2 @ TS geom
C       -2.0612700      -0.7124100      -1.0607000
C       -2.6839900      -0.6265900       0.2849200
C       -2.4347800      -1.6460800       1.3568600
O       -3.5184200       0.2667900       0.4345500
N       -1.0748500      -1.5083900      -1.4378500
C       -0.6269200      -1.4614600      -2.8399900
N       -0.4596100      -2.2846200      -0.5667300
C        0.4090600      -3.1747200      -0.9834200
N        1.2123300      -4.0217800      -1.1506200
H       -2.3561600       0.0508400      -1.7509700
H       -1.4479300      -1.5310900       1.8044000
H       -3.2193200      -1.5433700       2.1207900
H       -2.4704000      -2.6585100       0.9139400
H       -1.3826200      -0.9474100      -3.4368200
H       -0.4450900      -2.4605300      -3.2070500
H        0.3154400      -0.8722900      -2.8316500
