47
dipolar_001418 TS complex (tags stripped)
C       -1.3441700       1.9826800       2.1858200
O       -1.4505700       2.4394800       0.8430300
C       -0.4565100       2.1027700      -0.1102200
C       -1.0531700       2.3884500      -1.5107500
C       -2.3488000       3.1288100      -1.5722900
O       -0.4419800       2.0241600      -2.4984400
C        0.8450400       2.9474700       0.0037700
C        1.7706100       2.7345200       1.2174500
C        2.8176600       1.5959900       1.2012900
C        2.4859000       0.2627800       1.8946500
C        1.8750600      -0.8346900       0.9484400
C        1.5412400      -2.0276800       1.7465000
N        1.2763900      -2.9254600       2.4297800
C        2.8506200      -1.1961100      -0.1029200
N        3.6420400      -1.4165100      -0.9197200
C        0.7067300      -0.1845100       0.3542600
C        0.0214300       0.7270800       0.0275400
C       -2.0612700      -0.7124100      -1.0607000
C       -2.6839900      -0.6265900       0.2849200
C       -2.4347800      -1.6460800       1.3568600
O       -3.5184200       0.2667900       0.4345500
N       -1.0748500      -1.5083900      -1.4378500
C       -0.6269200      -1.4614600      -2.8399900
N       -0.4596100      -2.2846200      -0.5667300
C        0.4090600      -3.1747200      -0.9834200
N        1.2123300      -4.0217800      -1.1506200
H       -0.8593900       0.9858900       2.2645000
H       -0.7777100       2.6919700       2.8084500
H       -2.3621300       1.8943100       2.5756600
H       -2.5996400       3.3465700      -2.6102100
H       -2.2718500       4.0632800      -0.9820100
H       -3.1234000       2.5210700      -1.0904700
H        1.4211600       2.7179900      -0.9176400
H        0.5113000       3.9542300      -0.0371800
H        2.3448700       3.6716400       1.2599000
H        1.2017600       2.6986500       2.1530800
H        3.6920900       1.9700200       1.7554400
H        3.1750500       1.4199500       0.1753600
H        1.7081100       0.4223300       2.6744700
H        3.3433300      -0.1809200       2.3409800
H       -2.3561600       0.0508400      -1.7509700
H       -1.4479300      -1.5310900       1.8044000
H       -3.2193200      -1.5433700       2.1207900
H       -2.4704000      -2.6585100       0.9139400
H       -1.3826200      -0.9474100      -3.4368200
H       -0.4450900      -2.4605300      -3.2070500
H        0.3154400      -0.8722900      -2.8316500
