10
dipolar_000263 reactant_2 @ TS geom
C        3.6339800       1.6718600      -1.1304200
O        2.4375500       0.8857600      -1.1098300
C        2.1087400       0.3440200       0.0666800
O        2.7704100       0.4578300       1.0874800
C        0.9454100      -0.5078600      -0.0318200
C        0.0699600      -1.3295100      -0.0719800
Br      -0.9569000      -2.8435600      -0.1687000
H        3.5334500       2.5101300      -0.4438800
H        4.4995600       1.0461800      -0.8328300
H        3.7458700       2.0058700      -2.1569000
