10
dipolar_000263 reactant_2 (FRAG2 relaxed, reordered to d) type=dipolarophile
C       -2.1238400       0.1584900       0.4955400
O       -2.8280800       0.3978400      -0.6108200
C       -0.7069900       0.0433200       0.2123400
O       -2.5981100       0.0494400       1.6081800
C       -4.2507200       0.5358100      -0.4464800
C        0.4896700      -0.0607000       0.0351500
Br       2.2515000      -0.2129500      -0.2283900
H       -4.6774200      -0.3856400      -0.0253100
H       -4.6504800       0.7181200      -1.4501500
H       -4.4773900       1.3831100       0.2162800
