27
dipolar_000263 TS complex (tags stripped)
C        3.6339800       1.6718600      -1.1304200
O        2.4375500       0.8857600      -1.1098300
C        2.1087400       0.3440200       0.0666800
O        2.7704100       0.4578300       1.0874800
C        0.9454100      -0.5078600      -0.0318200
C        0.0699600      -1.3295100      -0.0719800
Br      -0.9569000      -2.8435600      -0.1687000
C       -2.3306600       0.4886800       0.2067900
C       -2.9153500       0.1018800      -1.1203600
C       -2.8217200      -0.1283700       1.4827400
N       -1.3202100       1.2811400       0.2383000
C       -0.2988100       1.9557400       0.2626000
C        0.4630200       3.1198100       0.2888200
C        1.0284500       3.4837600       1.6427500
O        0.8029300       3.6981100      -0.7681000
H        3.5334500       2.5101300      -0.4438800
H        4.4995600       1.0461800      -0.8328300
H        3.7458700       2.0058700      -2.1569000
H       -3.8656400       0.5798200      -1.1722700
H       -3.0731300      -1.0055300      -1.1900100
H       -2.2691100       0.3996400      -1.9655700
H       -2.9712800      -1.2352900       1.3675300
H       -2.1140300       0.0229800       2.3182800
H       -3.7637300       0.3182200       1.6841100
H        1.4233700       4.4944800       1.5966000
H        1.8376500       2.7745200       1.9041500
H        0.2477600       3.3887900       2.4140500
