18
dipolar_002631 reactant_1 (FRAG1 relaxed, reordered to d) type=dipole
C       -3.1835100       1.5589900      -0.2903800
N       -1.8143900       1.0890400      -0.2695100
C       -1.4551900      -0.1023500       0.2393000
O        0.8807400       1.5523900      -0.8349000
C        0.0042000      -0.4014500       0.1803300
C        1.0712400       0.4466200      -0.3499700
O        2.2765900      -0.1197100      -0.2438500
O       -2.2354800      -0.9280300       0.7296200
C        3.3944300       0.6374900      -0.7335600
N        0.3443000      -1.5760300       0.6759200
N        0.6098800      -2.5829400       1.1038100
H       -3.3230300       2.4175800       0.3866600
H       -1.0682300       1.6808500      -0.6333100
H       -3.4698900       1.8712200      -1.3063300
H       -3.8474800       0.7481800       0.0313500
H        4.2776200       0.0133100      -0.5567200
H        3.2800600       0.8398700      -1.8080700
H        3.4838600       1.5871200      -0.1869700
