35
dipolar_002631 reactant_2 @ TS geom
C       -0.6627100       1.1601800       4.9986300
C       -1.7504300       0.7068700       4.9963300
C       -3.1902100       0.7126000       4.7842000
C       -3.5440600      -0.1842900       3.5932000
O       -2.6986800      -0.6244400       2.8412900
O       -4.8464400      -0.3120400       3.3921400
C       -5.2485900      -1.1043400       2.2675300
C       -3.9519500       0.5192400       6.0989600
O       -3.4277300       0.6888600       7.1801100
O       -5.2422900       0.2684600       5.9442700
C       -6.0222800       0.1332500       7.1429900
C       -3.4339700       2.1927400       4.2919800
C       -3.1480200       3.3257400       5.2883600
C       -1.7511400       3.4981300       5.9221200
C       -0.5441800       3.4816900       4.9501600
C        0.3234100       2.2078900       5.0973800
C        1.1874800       2.1918400       6.3436400
Br       1.5494200       2.1080800       3.4808700
H       -4.9151800      -2.1405100       2.4087000
H       -6.3408200      -1.0508300       2.2481300
H       -4.8240700      -0.6967900       1.3401400
H       -7.0483300      -0.0513400       6.8066600
H       -5.6533400      -0.7148400       7.7350400
H       -5.9726400       1.0544700       7.7395800
H       -2.7745300       2.2987100       3.4038500
H       -4.4523900       2.2473500       3.9657600
H       -3.8888500       3.2726600       6.1038400
H       -3.3827600       4.2446200       4.7312200
H       -1.7542400       4.4579700       6.4451700
H       -1.6194500       2.7331600       6.7127300
H       -0.9186100       3.5117300       3.9076500
H        0.1007500       4.3213800       5.0984500
H        1.8224100       3.0803200       6.3508000
H        1.8045300       1.2900400       6.3969800
H        0.5278000       2.2103800       7.2270400
