35
dipolar_002631 reactant_2 (FRAG2 relaxed, reordered to d) type=dipolarophile
C        0.5721600      -2.0752500       1.8331500
C        0.9759700      -1.1246400       0.6873000
C        0.6702400      -1.8485000      -0.6746600
C        2.4744700      -0.8372300       0.8728400
O        3.2410300      -1.7662300       0.3193700
O        2.8948900       0.1281100       1.4727300
C        4.6621500      -1.6153800       0.4786800
C       -0.8156900      -1.9268400      -1.0780800
O       -0.6364900      -1.8188400       2.3127700
O        1.2816200      -2.9818200       2.2118200
C       -1.4247400      -0.7523700      -1.8960400
C        0.2004300       0.1109500       0.6716800
C       -0.6575100       0.8875000       0.3131500
C       -1.7942000       1.4013800      -0.4235200
C       -1.1276500      -2.6990300       3.3403200
C       -2.4019500       0.2064400      -1.1902200
C       -2.8204600       2.1599500       0.4031100
Br      -1.0496100       2.7198500      -1.8011100
H        5.1143200      -2.4653800      -0.0442700
H        4.9964800      -0.6682800       0.0324600
H        4.9274700      -1.6360000       1.5451700
H       -0.6214500      -0.1683800      -2.3751100
H        1.2405400      -1.3215100      -1.4543300
H       -1.9933400      -1.2005200      -2.7250200
H       -1.4368000      -2.1317400      -0.1910400
H        1.0902900      -2.8611700      -0.5983100
H       -3.1208600       0.6150800      -1.9166100
H       -2.3696200       3.0275300       0.9036300
H       -3.2226000       1.4815500       1.1729200
H       -2.9932400      -0.3567600      -0.4470200
H       -2.1231500      -2.3243300       3.6025800
H       -0.4623300      -2.6686700       4.2143500
H       -1.1922000      -3.7273800       2.9581400
H       -0.8973300      -2.8289100      -1.7035500
H       -3.6509300       2.5007600      -0.2310400
