14
dipolar_001146 reactant_1 @ TS geom
C        1.8877900       0.5876500      -1.9842400
C        2.7416400       0.7675200      -0.7717400
C        1.3675400       1.7964100      -2.6860200
N        1.5275800      -0.5679200      -2.4592300
N        1.7550000      -1.8677100      -2.1031100
C        2.7557700      -2.1699800      -1.3145500
N        3.6249600      -2.6582900      -0.6691100
H        3.6957700       1.0791800      -1.2035700
H        2.8950300      -0.1177800      -0.1479400
H        2.3845200       1.5952600      -0.1239400
H        1.1290100       2.6098900      -1.9567000
H        2.1512800       2.1059100      -3.3039500
H        0.4390900       1.5832000      -3.2595200
H        0.9217300      -0.5668900      -3.2673900
