14
dipolar_001146 reactant_1 (FRAG1 relaxed, reordered to d) type=dipole
C       -0.4548400       0.6234700       0.8911200
C       -0.9855900       1.7565700       1.6979300
C        0.3687700      -0.4339500       1.5385600
N       -0.7507100       0.5866900      -0.3786600
N       -0.4267500      -0.2822000      -1.3725600
C        0.7070600      -0.9318400      -1.3017500
N        1.7034200      -1.5567900      -1.4046200
H       -1.5898600       1.3656000       2.5330700
H       -1.5941200       2.4477200       1.0979300
H       -0.1456400       2.3136700       2.1463200
H        0.2802100      -0.3539200       2.6294800
H        0.0405700      -1.4349700       1.2183900
H        1.4329200      -0.3351500       1.2697300
H       -1.3884100       1.3134900      -0.7133200
