35
dipolar_001146 reactant_2 (FRAG2 relaxed, reordered to d) type=dipolarophile
C        3.8748300      -0.5570400       1.4601200
O        2.4813800      -0.3173300       1.2012400
C       -0.2141900      -1.1215800       1.2883200
O       -1.1079900      -0.2957500       1.8125100
C        0.2528500       0.8520900      -0.1994300
C        0.4554700      -0.5795300       0.0150700
O        2.5634200      -1.6466000      -0.6094100
O        0.0389900      -2.2249700       1.7258300
C        1.9491600      -0.9267800       0.1436200
C       -0.2414300       1.8351000      -0.7097600
C       -1.1013700       2.6576600      -1.5591700
C       -2.2173300       1.7000100      -2.0597200
C       -1.7586500       0.3298800      -2.6030500
C       -1.5977500      -0.8539500      -1.6049100
C       -0.1744600      -1.3036900      -1.2172200
C       -1.8209200      -0.7619200       2.9722300
C       -1.6715800       3.9025900      -0.8741400
H        4.0489600      -1.6277700       1.6384900
H        4.1184500       0.0234500       2.3569700
H        4.4837400      -0.2202600       0.6092200
H       -0.5067100       2.9776200      -2.4335200
H        0.5115900      -1.1508600      -2.0630900
H       -0.8690200       4.5860100      -0.5575600
H       -2.2577800       3.6243300       0.0159600
H       -2.5026900       0.0495000       3.2498500
H       -2.9318000       1.5424300      -1.2330800
H       -2.1929800      -0.6598400      -0.6969200
H       -2.7682100       2.2356700      -2.8504600
H       -0.8278300       0.4555400      -3.1834100
H       -2.5194700       0.0216500      -3.3372200
H       -2.0644000      -1.7338100      -2.0738700
H       -0.1673100      -2.3810800      -0.9934200
H       -2.3861300      -1.6724400       2.7285300
H       -1.1177100      -0.9700700       3.7906900
H       -2.3335400       4.4464000      -1.5656200
