49
dipolar_001146 TS complex (tags stripped)
C       -1.8038700       3.4019400      -1.7984200
O       -1.5319500       2.1816500      -1.0909200
C       -0.6775400       2.2433200      -0.0686000
O       -0.0660600       3.2432300       0.2395700
C       -0.6089200       0.8896200       0.6525900
C       -2.0745700       0.5317800       0.9959800
O       -2.6385400      -0.5033300       0.7369800
O       -2.6510600       1.5468600       1.6433000
C       -4.0162900       1.3686100       2.0286800
C        0.2430400       0.9892800       1.9622600
C        0.9740700      -0.2805100       2.4239300
C        0.1554000      -1.5733500       2.6859700
C        0.4834600      -2.7821700       1.7832900
C       -0.2037900      -2.7890500       0.3958600
C        0.1559900      -4.0093200      -0.4445400
C       -0.0620900      -1.4346700      -0.1411900
C       -0.1420200      -0.2434900      -0.1375900
C        1.8877900       0.5876500      -1.9842400
C        2.7416400       0.7675200      -0.7717400
C        1.3675400       1.7964100      -2.6860200
N        1.5275800      -0.5679200      -2.4592300
N        1.7550000      -1.8677100      -2.1031100
C        2.7557700      -2.1699800      -1.3145500
N        3.6249600      -2.6582900      -0.6691100
H       -0.8902500       3.7999100      -2.2521300
H       -2.2295100       4.1479200      -1.1060200
H       -2.5359600       3.1449800      -2.5714900
H       -4.0987200       0.5080700       2.7064500
H       -4.6311100       1.1974100       1.1349400
H       -4.2850900       2.2909300       2.5252600
H       -0.4182400       1.3611900       2.7351600
H        0.9989700       1.7661300       1.7801000
H        1.4824900       0.0132400       3.3590400
H        1.7891100      -0.5093600       1.7178500
H        0.3499300      -1.8935900       3.7202900
H       -0.9247000      -1.3611900       2.6455900
H        0.1482200      -3.6958900       2.2659000
H        1.5716100      -2.8497000       1.6453300
H       -1.2771000      -2.7407700       0.5434200
H       -0.3160900      -3.9480300      -1.4413900
H        1.2217400      -4.1362600      -0.5618100
H       -0.2612000      -4.8793800       0.0773800
H        3.6957700       1.0791800      -1.2035700
H        2.8950300      -0.1177800      -0.1479400
H        2.3845200       1.5952600      -0.1239400
H        1.1290100       2.6098900      -1.9567000
H        2.1512800       2.1059100      -3.3039500
H        0.4390900       1.5832000      -3.2595200
H        0.9217300      -0.5668900      -3.2673900
