15
dipolar_001295 reactant_2 @ TS geom
C       -5.4996800       1.1180400      -1.0835900
O       -4.8028800       0.3453800      -0.0986000
C       -4.1203300      -0.7213500      -0.5545400
O       -4.1775100      -1.1084500      -1.7137900
C       -3.2700600      -1.3003400       0.5018100
N       -2.7731200      -2.5398900       0.2807500
C       -1.6572600      -2.8111500      -0.3130000
C       -1.2711700      -4.2082400      -0.7274000
H       -5.9756900       1.9497800      -0.5543000
H       -6.2626400       0.5120500      -1.5959600
H       -4.7915600       1.5076600      -1.8335500
H       -3.5614000      -1.0807000       1.5746900
H       -1.8730300      -5.1135000      -0.3322100
H       -1.3298200      -4.2810700      -1.8284400
H       -0.2189400      -4.3938400      -0.4496500
