23
dipolar_001295 reactant_1 (FRAG1 relaxed, reordered to d) type=dipolarophile
C        0.8834100       0.0864300       0.6231900
C        0.1033100      -0.7743800      -0.0605800
O        1.8802000      -1.9374000       0.8528500
C       -2.2271500       0.1611200      -0.0678800
C       -1.2479000      -0.7026300      -0.6028800
Br       0.5911500       1.8582300       1.1649300
C       -1.6019000      -1.5157200      -1.7006900
C        1.0861800      -1.9543200      -0.3469900
C       -2.8811100      -1.4510300      -2.2547700
C        2.1189500      -1.4503700      -1.3782300
C        2.8715800      -0.5737000      -0.7071500
C        2.2809900      -0.5665100       0.7228600
C       -3.5063000       0.2154800      -0.6194500
C       -3.8391300      -0.5858000      -1.7177400
H        2.9249900      -0.2327200       1.5434300
H       -1.9883500       0.7819700       0.7953200
H       -4.2514700       0.8866900      -0.1858600
H       -0.8661300      -2.1954700      -2.1347500
H        0.6265000      -2.9324500      -0.5203600
H        2.1433800      -1.7334800      -2.4298400
H        3.6848300       0.0632600      -1.0528900
H       -3.1312100      -2.0829100      -3.1102200
H       -4.8420200      -0.5393300      -2.1483800
