36
dipolar_002319 reactant_1 (FRAG1 relaxed, reordered to d) type=dipolarophile
C       -0.0119000      -0.0131200      -0.0014500
C       -0.9561400      -0.9906500      -0.1404600
C       -0.7678200      -2.4078300       0.3254100
C       -2.3002600      -0.7706300      -0.7772600
C       -1.5385500       1.9639300       0.2283000
C       -0.3342800       1.4110800      -0.2451500
C        1.3774200      -0.3314800       0.3991500
C        2.0475200      -1.4384800      -0.1538400
C       -2.3677500      -0.1231900      -2.1357800
C        0.5574500       2.2335800      -0.9597600
C        3.3467300      -1.7537600       0.2474300
C        2.0488400       0.4671200       1.3445800
C        3.9944100      -0.9689400       1.2059700
C        3.3424100       0.1431400       1.7520100
C        0.2336800       3.5637100      -1.2246000
C       -0.9739100       4.0996400      -0.7613700
O       -1.1035800      -3.3343400      -0.4017400
C       -0.3143000      -2.6579500       1.7400100
C       -1.8549400       3.2989200      -0.0286200
O       -3.3045100      -1.2300500      -0.2475800
H       -1.2377900      -2.6924300       2.3461500
H        0.3204900      -1.8642400       2.1489500
H       -2.2178200       1.3495900       0.8220400
H       -2.7897500       3.7169600       0.3514500
H        1.5409200       1.3315500       1.7760700
H       -2.2791000      -0.9507800      -2.8629100
H       -1.5511700       0.5800600      -2.3327500
H        1.5559300      -2.0396800      -0.9207600
H        1.4970300       1.8165000      -1.3266400
H        3.8573500      -2.6115100      -0.1959900
H        0.9256500       4.1869600      -1.7955800
H       -1.2226600       5.1437900      -0.9645900
H       -3.3447100       0.3577700      -2.2819300
H        3.8459200       0.7601200       2.4997200
H        5.0102400      -1.2173600       1.5219300
H        0.1813300      -3.6356000       1.8152000
