16
dipolar_001261 reactant_2 (FRAG2 relaxed, reordered to d) type=dipole
C       -0.8528400       0.3728000      -0.0168400
C       -2.2300400       0.6153400       0.0030000
N       -3.3798000       0.8227900       0.0187600
O        0.0558800       1.3457500      -0.2032800
C        1.3514900       0.7661000      -0.1722900
O        2.3463800       1.4595100      -0.3222300
C        1.1252400      -0.6197600       0.0472600
C        2.1310400      -1.7027300       0.1588200
N       -0.2221800      -0.8001900       0.1344700
C       -0.8708700      -2.0894700       0.3521900
H        2.0024800      -2.4647600      -0.6280200
H        3.1328200      -1.2645100       0.0546800
H        2.0762200      -2.2162800       1.1331000
H       -0.4951500      -2.5260500       1.2862300
H       -0.6326300      -2.7569600      -0.4861300
H       -1.9547400      -1.9446700       0.4180800
