44
dipolar_001261 TS complex (tags stripped)
C        4.0200400       0.0510700      -1.9012600
N        2.9637700      -0.4646600      -1.0654800
C        1.9811600       0.3293900      -0.5948300
O        1.9585400       1.5417300      -0.7564700
C        1.0065600      -0.4924400       0.2512300
C        1.5711600      -0.7503500       1.6434400
C        1.3215400       0.0841300       2.8619300
O        2.4482100      -1.6226200       1.6252500
C       -0.6437700       1.6893500       0.6936700
C        0.2304700       2.6289900       1.2547800
N        0.9416500       3.4135700       1.7710600
O       -1.4180700       0.8932600       1.4675600
C       -2.4394900       0.3291700       0.6778900
O       -3.2813700      -0.4153000       1.1717200
C       -2.1920700       0.8217300      -0.6342300
C       -3.0134000       0.6100400      -1.8498900
N       -1.1380000       1.6765300      -0.5456200
C       -0.6679900       2.5162300      -1.6511500
C       -0.0080800      -1.2203200      -0.2625200
C       -0.7395700      -2.1129200       0.7207200
C       -1.8171300      -3.0726700       0.3195900
O       -0.4179500      -2.0328700       1.8985100
C       -0.2104400      -1.2209200      -1.7625300
C       -0.9442300      -2.3256800      -2.4660800
O        0.2882500      -0.3211200      -2.4225800
H        4.6696600      -0.7970700      -2.0940100
H        4.5516600       0.8401100      -1.3834500
H        3.5959800       0.4284300      -2.8318200
H        2.8760200      -1.4277500      -0.7733600
H        1.9024400       1.0199900       2.8008200
H        1.7166200      -0.4877900       3.7370900
H        0.2715900       0.3464100       3.0601800
H       -2.3965300       0.4319200      -2.7294500
H       -3.6727200      -0.2377100      -1.6579700
H       -3.6195100       1.5104300      -2.0147900
H        0.0485900       3.2503000      -1.2476900
H       -0.1598000       1.9165500      -2.4265200
H       -1.5366100       3.0150700      -2.0556500
H       -1.3678400      -3.9161800      -0.2543200
H       -2.2525000      -3.4772900       1.2353400
H       -2.5788200      -2.6149600      -0.3031300
H       -0.5961600      -3.3212700      -2.1421100
H       -0.7684600      -2.2052100      -3.5387400
H       -2.0243700      -2.2711100      -2.2716000
