20
dipolar_001189 reactant_1 (FRAG1 relaxed, reordered to d) type=dipole
C        0.5949700       0.6356800       0.5045200
N        1.5075900      -0.1992900       1.0486500
C       -0.4520400       0.0182300      -0.3218300
O        0.6514100       1.8700500       0.7036600
C       -0.5675800      -1.3904300      -0.5761200
C       -1.7036700      -1.8982900      -1.4503000
C        2.5795800       0.2931300       1.8821300
O        0.2318100      -2.2328700      -0.1060600
N       -1.4123300       0.8370400      -0.9068600
C       -1.6147700       2.1215500      -0.9056100
H        3.2226700       1.0091500       1.3431900
H       -0.9396400       2.7723900      -0.3582500
H        2.1993200       0.8064900       2.7816200
H        1.3855500      -1.1929900       0.8404200
H       -1.6097400      -2.9881100      -1.5333700
H        3.1981400      -0.5548900       2.2030200
H       -2.6898800      -1.6657600      -1.0152700
H       -2.1021200       0.3126600      -1.4508400
H       -1.6697400      -1.4668300      -2.4643100
H       -2.4736300       2.4875900      -1.4688000
