23
dipolar_001189 reactant_2 @ TS geom
C        0.3742000      -1.2537400      -0.4951800
C        0.9339100       0.0859200      -1.0300000
O       -0.1617100       0.9788700      -0.7973300
C       -0.3581700       0.6010600       0.5670800
C        1.0730900       0.8430400       1.0973100
Cl       1.3526100       1.1172400       2.7782000
C        1.9172800       0.5139300       0.1000600
C        3.3515800       0.3017500       0.0198400
C        3.8979000      -0.4537800      -1.0407000
C        5.2746900      -0.6630000      -1.1307100
C        6.1341200      -0.1187500      -0.1717300
C        5.6039500       0.6319900       0.8843500
C        4.2304100       0.8386000       0.9832500
C       -0.4537700      -0.9466700       0.4506300
H        0.6676900      -2.2216000      -0.8965700
H        1.2988400       0.1908500      -2.0715100
H       -1.1669100       1.1807000       1.0517800
H        3.2439200      -0.8947200      -1.8031500
H        5.6809500      -1.2481700      -1.9604300
H        7.2092800      -0.2708000      -0.2447400
H        6.2569000       1.0691900       1.6343000
H        3.8191100       1.4255300       1.8020800
H       -1.0156200      -1.5539800       1.1408600
