23
dipolar_001189 reactant_2 (FRAG2 relaxed, reordered to d) type=dipolarophile
C       -2.1991200       1.3501900       0.8425100
C        1.5159500       1.7576100       0.3438600
O       -2.3165400       0.6347700      -1.3356700
C        2.8559500       2.0369500       0.6161700
C        1.1108400       0.4619800      -0.0415500
Cl      -0.6171500      -2.5707000       0.0071200
C       -0.2977800       0.1929300      -0.2988000
C       -1.0405800      -0.9320700      -0.3118700
C       -1.3823300       1.3024400      -0.4674400
C       -2.5119600      -0.4933700      -0.4711300
C       -2.9093300       0.2183200       0.8438000
C        2.0990400      -0.5398500      -0.1581500
C        3.4370000      -0.2531700       0.1076100
C        3.8230900       1.0343200       0.4988800
H       -2.1258400       2.1315500       1.5980800
H        0.7746100       2.5525600       0.4438800
H        3.1457600       3.0456600       0.9198500
H       -1.0403000       2.2525400      -0.8895300
H       -3.2022400      -1.2360100      -0.8848000
H        1.8159700      -1.5451700      -0.4690900
H        4.1867100      -1.0415300       0.0057300
H        4.8726200       1.2544000       0.7073400
H       -3.5801600      -0.1892600       1.5990500
