20
dipolar_001189 reactant_1 @ TS geom
C       -4.5548800       2.2229300       0.8608900
N       -4.0831700       0.9089800       0.4888800
C       -3.4072000       0.6920100      -0.6543200
O       -3.1303800       1.6248200      -1.4512000
C       -3.0006600      -0.6870600      -0.9572000
C       -3.3059500      -1.8248100      -0.1571300
C       -2.9948500      -3.2243700      -0.6429900
O       -3.8874500      -1.7156700       0.9553600
N       -2.1609200      -0.6798800      -2.0596800
C       -1.4067900      -1.5513000      -2.6593200
H       -5.0738400       2.1526900       1.8269000
H       -3.7298800       2.9419300       0.9548700
H       -5.2648400       2.6207500       0.1144100
H       -4.2261100       0.0794500       1.0749000
H       -1.9489100      -3.5005300      -0.4417300
H       -3.6418800      -3.9223500      -0.0900200
H       -3.1787900      -3.3326900      -1.7214600
H       -2.1377800       0.2559800      -2.4576800
H       -1.2313600      -2.5680500      -2.1640400
H       -0.6564300      -1.2319300      -3.3563300
