43
dipolar_001189 TS complex (tags stripped)
C       -4.5548800       2.2229300       0.8608900
N       -4.0831700       0.9089800       0.4888800
C       -3.4072000       0.6920100      -0.6543200
O       -3.1303800       1.6248200      -1.4512000
C       -3.0006600      -0.6870600      -0.9572000
C       -3.3059500      -1.8248100      -0.1571300
C       -2.9948500      -3.2243700      -0.6429900
O       -3.8874500      -1.7156700       0.9553600
N       -2.1609200      -0.6798800      -2.0596800
C       -1.4067900      -1.5513000      -2.6593200
C        0.3742000      -1.2537400      -0.4951800
C        0.9339100       0.0859200      -1.0300000
O       -0.1617100       0.9788700      -0.7973300
C       -0.3581700       0.6010600       0.5670800
C        1.0730900       0.8430400       1.0973100
Cl       1.3526100       1.1172400       2.7782000
C        1.9172800       0.5139300       0.1000600
C        3.3515800       0.3017500       0.0198400
C        3.8979000      -0.4537800      -1.0407000
C        5.2746900      -0.6630000      -1.1307100
C        6.1341200      -0.1187500      -0.1717300
C        5.6039500       0.6319900       0.8843500
C        4.2304100       0.8386000       0.9832500
C       -0.4537700      -0.9466700       0.4506300
H       -5.0738400       2.1526900       1.8269000
H       -3.7298800       2.9419300       0.9548700
H       -5.2648400       2.6207500       0.1144100
H       -4.2261100       0.0794500       1.0749000
H       -1.9489100      -3.5005300      -0.4417300
H       -3.6418800      -3.9223500      -0.0900200
H       -3.1787900      -3.3326900      -1.7214600
H       -2.1377800       0.2559800      -2.4576800
H       -1.2313600      -2.5680500      -2.1640400
H       -0.6564300      -1.2319300      -3.3563300
H        0.6676900      -2.2216000      -0.8965700
H        1.2988400       0.1908500      -2.0715100
H       -1.1669100       1.1807000       1.0517800
H        3.2439200      -0.8947200      -1.8031500
H        5.6809500      -1.2481700      -1.9604300
H        7.2092800      -0.2708000      -0.2447400
H        6.2569000       1.0691900       1.6343000
H        3.8191100       1.4255300       1.8020800
H       -1.0156200      -1.5539800       1.1408600
