24
dipolar_000425 reactant_1 (FRAG1 relaxed, reordered to d) type=dipole
C        0.8797300      -1.4718300      -1.4335300
C        1.8233300      -0.5552600       0.5750900
O        1.0864500       1.9967100      -0.0842300
C       -0.3678500       0.1454400       0.0238100
C       -0.0806400       1.5559500      -0.0074300
C       -1.2263600       2.5435400       0.0559700
O       -2.7147400       0.1563500       0.3301000
C       -1.6996300      -1.9935900       0.3237000
C       -1.6410700      -0.4751400       0.2213400
N        0.7870300      -0.6904700      -0.1899700
C        3.1403200      -1.1642800       0.2923700
H        1.2527300      -2.4826300      -1.2228400
H        1.5709200      -0.9669900      -2.1256400
H        3.4923600      -0.8891400      -0.7157100
H        1.6721500       0.0311100       1.4837000
H        3.8778900      -0.8489600       1.0395800
H       -1.7647000       2.4524300       1.0114200
H       -0.7741100      -2.4543100       0.6946200
H       -1.9194200      -2.4222000      -0.6685200
H       -0.1088800      -1.5264500      -1.8961000
H       -2.5333300      -2.2601300       0.9887500
H       -1.9668900       2.3575800      -0.7345700
H       -0.8133000       3.5571900      -0.0407000
H        3.0595100      -2.2655000       0.3115600
