24
dipolar_000425 reactant_1 @ TS geom
C       -2.1144000       0.6410900       2.5337900
C       -2.0050200      -0.0987100       1.2053300
O       -2.0904100      -1.3464300       1.2562000
C       -1.9351500       0.6365700      -0.0167300
C       -2.2472700       0.0922900      -1.3059200
C       -2.8404300      -1.3026500      -1.4068800
O       -2.0727100       0.7137700      -2.3838200
C       -0.4042400       2.2697000       0.7947200
C        0.3315400       3.5536300       0.8536200
N       -1.3449900       1.9536800      -0.0032100
C       -1.8813400       3.0040600      -0.8873100
H       -1.2499100       0.4308500       3.1620700
H       -2.2375000       1.7266200       2.4171200
H       -3.0020100       0.2265600       3.0281300
H       -2.0650400      -2.0742500      -1.2744500
H       -3.6058800      -1.4870400      -0.6434100
H       -3.2758900      -1.4172400      -2.4161300
H       -0.0013400       1.4422800       1.4722800
H        1.3489300       3.4469100       1.3218900
H       -0.2658600       4.1802100       1.4771700
H        0.4875400       4.0379100      -0.1319400
H       -1.9310000       3.9213200      -0.3166800
H       -1.2083500       3.1330100      -1.7563100
H       -2.8583400       2.7021500      -1.2271800
