17
dipolar_002782 reactant_1 @ TS geom
C      -12.8659400      17.4295400      -3.9055500
N      -13.4186200      16.7469600      -5.0645800
C      -14.2495300      17.3749200      -5.9065600
O      -14.4017200      18.5877200      -5.9657700
C      -15.0435500      16.4069500      -6.8653900
N      -15.6394100      17.1869500      -7.9429400
C      -15.8918300      16.1383700      -8.8309900
C      -16.6021800      16.4653700     -10.0475100
N      -17.2130100      16.7656700     -10.9875300
C      -14.5917600      15.3697300      -8.8348100
O      -14.1169800      14.6211100      -9.6430900
O      -14.0256800      15.6601100      -7.6328300
H      -13.6675900      17.6909800      -3.1821600
H      -12.1552200      16.7578300      -3.4038800
H      -12.3518200      18.3487800      -4.1920400
H      -13.5792700      15.7556900      -4.9882600
H      -16.3661200      17.8281400      -7.6595100
