17
dipolar_002782 reactant_1 (FRAG1 relaxed, reordered to d) type=dipole
C       -2.5387900      -1.8116100      -1.3143900
N        0.3500500       0.4027500       0.9706300
C       -0.5141000      -0.2864300       0.2634900
O       -0.1668900      -0.2920700      -1.0128200
C       -1.6852600      -0.9509100       0.9019400
N       -2.5466700      -1.6277700       0.1318800
C        1.3478200       0.9016500       0.1473800
C        1.0581300       0.4729400      -1.1762600
N        3.3378100       2.3334400       0.9087000
C        2.4281700       1.6818300       0.5754900
O        1.5563400       0.5978000      -2.2701600
O       -1.7860100      -0.8325500       2.1278400
H       -2.5850800      -0.8504000      -1.8447200
H       -1.6471600      -2.3593200      -1.6498200
H       -3.4273500      -2.3972600      -1.5769900
H        0.2636300       0.5268400       1.9818200
H       -3.3113000      -2.0496500       0.6549300
