17
dipolar_001225 reactant_1 @ TS geom
C       -0.9762200      -0.3682400      -0.3664700
Br      -1.7631700      -1.6944900       0.7384200
C       -1.2790500      -0.2605100      -1.8509400
C       -2.4903500       0.7347700      -1.8740800
C       -1.8502000       2.0848300      -1.4328000
C       -0.3570900       1.6947100      -1.1834100
C       -0.1401000       0.6629300      -2.3114600
C       -0.4710400       0.7882900       0.0267700
Br      -0.4687500       1.4644400       1.8078100
H       -1.4113900      -1.2111500      -2.3957600
H       -3.2528900       0.3717500      -1.1437700
H       -2.8879000       0.7872700      -2.8331300
H       -1.8894000       2.8208900      -2.1640400
H       -2.2511800       2.4657500      -0.4604300
H        0.3972500       2.5028800      -1.1157300
H       -0.3454200       1.1006700      -3.3045200
H        0.8508700       0.1719700      -2.3423800
