16
dipolar_001225 reactant_2 (FRAG2 relaxed, reordered to d) type=dipole
C        0.5408800       0.4574600       0.1385900
N       -1.5848200      -0.6756100       0.1322200
C       -0.8278400       0.3162500       0.6466700
O        0.9426600      -0.3858200      -0.7653700
C        3.0141600       0.5465000      -0.9051000
O       -1.2398500       1.0994000       1.5186900
N        2.1182200      -0.4681500      -1.3678600
C       -2.9428800      -0.8985200       0.5824200
H        1.1843000       1.2452400       0.5252800
H        2.6259400       1.5706600      -1.0901400
H        3.2063700       0.4761000       0.1865800
H       -1.1844000      -1.2853000      -0.5729000
H        3.9609100       0.4204100      -1.4435500
H       -3.3754600      -1.7271600       0.0089300
H       -2.9765100      -1.1555300       1.6539400
H       -3.5658900      -0.0021400       0.4330500
