17
dipolar_001225 reactant_1 (FRAG1 relaxed, reordered to d) type=dipolarophile
C       -2.0940100      -1.6237900       0.7201700
Br      -0.3785300       1.3802800      -1.5423000
C        0.0526500      -0.7325400       0.4119700
C       -0.7930100       0.0519800      -0.2780500
C       -2.1334900       0.5493000       1.7241500
C       -1.1544600      -0.3589300       2.5228200
C       -0.7601500      -1.4521000       1.4782700
C       -2.1794800      -0.1351800       0.3201800
Br       1.9311100      -0.7618400       0.3423700
H       -0.2909400      -2.3500200       1.8972500
H       -1.7952700       1.5928300       1.6544000
H       -0.2722100       0.1800600       2.8961000
H       -1.6527600      -0.8290800       3.3833200
H       -3.1384300       0.5488400       2.1712800
H       -2.9210200      -1.9401200       1.3737500
H       -2.0149700      -2.2985300      -0.1440400
H       -3.0118200       0.1744500      -0.3226700
