14
dipolar_000514 reactant_2 (FRAG2 relaxed, reordered to d) type=dipole
C        0.0996500      -2.1554800       0.5977200
C       -0.1100100      -0.8024400       0.2381000
N        0.2580100      -3.2708600       0.8958100
N        0.9190100      -0.0427800      -0.0744700
C       -1.4766700      -0.2521800       0.2129200
C       -2.7762300       1.6719800      -0.1984100
N        3.6994700       2.2224700      -0.9885200
C        1.7968000       0.6802000      -0.3635200
O       -1.4908900       1.0323600      -0.1428500
O       -2.4592000      -0.9136500       0.4894400
C        2.8186800       1.5084900      -0.6991400
H       -2.5826700       2.7062400      -0.5042600
H       -3.2573200       1.6498500       0.7898400
H       -3.4213300       1.1706000      -0.9339700
