11
dipolar_000514 reactant_1 (FRAG1 relaxed, reordered to d) type=dipolarophile
C       -3.3386200       0.2433600      -0.2986800
N       -2.9813500       0.1084300       1.1002500
C       -1.7493700      -0.0167500       1.6286400
O       -1.5381900      -0.1308500       2.8420200
C       -0.6299500      -0.0136100       0.6904100
C        0.3591400      -0.0217200      -0.0146300
Br       1.8130800      -0.0334000      -1.0605600
H       -3.9832700      -0.5896400      -0.6192600
H       -2.4341200       0.2400500      -0.9187600
H       -3.8769900       1.1875100      -0.4743600
H       -3.7346500       0.1010700       1.7853700
