11
dipolar_000514 reactant_1 @ TS geom
C       -0.8105500       4.1001000      -0.5424000
N       -1.1239000       2.7125300      -0.2340700
C       -0.6312000       1.7027400      -0.9864200
O       -0.0707500       1.8851000      -2.0740700
C       -0.6931900       0.3598900      -0.3800700
C       -0.8251100      -0.8842700      -0.0199600
Br      -2.1231400      -2.2255000      -0.4717900
H        0.2747200       4.3104400      -0.4529100
H       -1.3448700       4.7528600       0.1680800
H       -1.1236600       4.3605200      -1.5606200
H       -1.4502500       2.4961500       0.6981600
