25
dipolar_000514 TS complex (tags stripped)
C       -0.8105500       4.1001000      -0.5424000
N       -1.1239000       2.7125300      -0.2340700
C       -0.6312000       1.7027400      -0.9864200
O       -0.0707500       1.8851000      -2.0740700
C       -0.6931900       0.3598900      -0.3800700
C       -0.8251100      -0.8842700      -0.0199600
Br      -2.1231400      -2.2255000      -0.4717900
C        0.3183600      -1.4513400       1.0511300
C        0.4207400      -2.8322100       1.5112500
N        0.3923500      -3.9575000       1.7972300
N        1.1966500      -0.5952200       1.4874900
C        1.2838600       0.6653200       0.9762100
C        1.0625400       1.7723600       1.8602300
N        0.8210300       2.6843400       2.5403900
C        2.2113900       0.8517800      -0.2078800
O        2.6120700      -0.0726700      -0.8754600
O        2.4507900       2.1356600      -0.4110100
C        3.1558300       2.4824200      -1.6239200
H        0.2747200       4.3104400      -0.4529100
H       -1.3448700       4.7528600       0.1680800
H       -1.1236600       4.3605200      -1.5606200
H       -1.4502500       2.4961500       0.6981600
H        4.1727400       2.0678400      -1.6079300
H        2.6023500       2.0908600      -2.4914400
H        3.1855300       3.5769600      -1.6540400
