13
dipolar_000401 reactant_1 (FRAG1 relaxed, reordered to d) type=dipole
C       -1.1453200      -0.3738400       0.1551500
O       -2.0330100       0.5343800      -0.2353000
C        0.2324800       0.0744300      -0.0418700
O       -1.4038300      -1.4627600       0.6279300
C        1.4512200      -0.5897000       0.2337700
O        0.5118000       1.2909100      -0.5342900
N        1.7910300       1.5188400      -0.6199500
O        2.3975400       0.4498400      -0.1846100
C       -3.4198900       0.1910200      -0.0653700
O        1.8339500      -1.6405700       0.6629600
H       -3.6558300      -0.7289800      -0.6183600
H       -3.9873900       1.0367800      -0.4686700
H       -3.6469000       0.0504300       1.0010700
