13
dipolar_000401 reactant_2 (FRAG2 relaxed, reordered to d) type=dipolarophile
C       -0.0025600       0.8574100      -0.5264600
Cl       2.0059900      -0.0568000       1.1560700
C       -0.2970600      -1.3449600      -0.0414200
C       -1.5876800      -1.0759500       0.7723100
C       -2.2076800      -0.0912200       0.1169100
C       -1.2870200       0.2229900      -1.0894700
O       -0.7803100      -1.0946600      -1.3764600
C        0.6278600      -0.1159000       0.1343400
F        0.2659300       2.1521200      -0.6055600
H        0.1806500      -2.3250800       0.0593600
H       -1.7299300       0.7127400      -1.9634500
H       -3.1271200       0.4416400       0.3557300
H       -1.8572600      -1.5782100       1.7004600
