26
dipolar_000401 TS complex (tags stripped)
C        4.1766100      -0.5393300       1.2674900
O        3.1148900       0.1444700       0.5839100
C        2.4206500      -0.5696500      -0.2954100
O        2.5795400      -1.7504900      -0.5389800
C        1.4193000       0.2318100      -1.0027800
O        1.0477000       1.4374800      -0.5783700
N        0.0475500       1.9266500      -1.2564700
O       -0.3025500       1.0086700      -2.1048700
C        0.5351700      -0.1651900      -2.0309100
O        0.3880400      -1.1025500      -2.7774400
C       -1.3725700       0.5987100       0.7219400
Cl      -1.3260300       2.0127400       1.7325200
C       -2.5940200       0.1372500      -0.0875900
C       -3.3565200      -0.7587900       0.9306700
C       -2.5926800      -1.8437400       1.0776900
C       -1.3718500      -1.6058100       0.1413700
O       -1.9936900      -0.8668600      -0.9186600
C       -0.6448300      -0.4652700       0.8447000
F        0.3917300      -0.6710400       1.6879600
H        4.6440600       0.2182400       1.9021400
H        4.9062500      -0.9198000       0.5284000
H        3.7832400      -1.3656300       1.8598400
H       -3.1530100       0.8764500      -0.6925600
H       -4.2191200      -0.4313800       1.4545300
H       -2.6537200      -2.6547600       1.7585400
H       -0.7943200      -2.4689500      -0.2364200
