22
dipolar_001298 reactant_2 (FRAG2 relaxed, reordered to d) type=dipole
C       -0.1706400       2.1629600      -0.4186900
C       -1.0296500      -0.1766800       0.0485300
C        1.1678400       0.1031300      -0.0393900
O       -2.8630800       1.2790000      -0.2126000
O        2.7949300       1.7821000      -0.3938800
C        2.5587700       0.6072100      -0.1554400
O        0.9698700      -1.1926100       0.2170600
C       -0.4283100      -1.4488600       0.2882600
C       -2.4461500       0.1390300       0.0075700
C        3.6280000      -0.4254000       0.0424800
O       -0.8276500      -2.5722800       0.5138700
N        0.0067200       0.7325700      -0.1450300
C       -3.3958200      -1.0075700       0.2500500
H        0.8161200       2.6178800      -0.5136000
H       -0.7454700       2.2758000      -1.3445200
H       -0.7337300       2.6117400       0.4069300
H        3.5315900      -0.8857500       1.0388000
H        3.5181400      -1.2333500      -0.6985500
H       -3.2116600      -1.4637900       1.2351500
H       -3.2469400      -1.8009000      -0.4990100
H       -4.4255000      -0.6311700       0.1973100
H        4.6102000       0.0514200      -0.0610600
