44
dipolar_001298 TS complex (tags stripped)
C        3.2013600       1.6483900       2.7041800
O        2.8130500       0.9191900       1.5312300
C        2.0811200       1.5856200       0.6246200
O        1.7902700       2.7665300       0.7497000
C        1.6604100       0.7781100      -0.5173500
C        1.8493200      -0.5149700      -0.8670700
C        2.6213800      -1.6332300      -0.2735400
C        1.1306000      -0.6326000      -2.2405800
O        1.4725400       0.6764100      -2.7957900
C        0.8691500       1.3990200      -1.6776700
C       -0.5555100       0.8093000      -1.7536700
C       -0.3685100      -0.4158000      -2.1536000
C       -1.4634400      -1.6124200      -0.1083200
C       -1.1827700      -2.9713600      -0.6094600
C       -2.2889700      -3.5742200      -1.4262100
O       -0.1506100      -3.5727700      -0.3249500
O       -2.5481300      -0.9579100      -0.5795900
C       -2.5991400       0.3223100       0.0068200
O       -3.5276300       1.0731700      -0.2320200
C       -1.4471600       0.3763200       0.8494000
C       -1.0283600       1.4790800       1.6928700
C       -1.6292200       2.8300100       1.3987300
O       -0.2162500       1.3181700       2.6086100
N       -0.8437800      -0.8626600       0.7889400
C        0.1295800      -1.3810600       1.7610900
H        2.3107200       1.9969900       3.2458600
H        3.8289300       2.5106300       2.4358800
H        3.7707400       0.9438100       3.3217200
H        2.0025300      -2.5390900      -0.2187500
H        3.4664700      -1.8732900      -0.9438400
H        3.0262900      -1.3971300       0.7231500
H        1.4220800      -1.4822700      -2.8435100
H        0.9412000       2.4713900      -1.8002600
H       -1.4549700       1.4464400      -1.7877100
H       -1.1181600      -1.0730900      -2.6082600
H       -2.4629800      -3.0057700      -2.3503300
H       -3.2209000      -3.5130000      -0.8331900
H       -2.0443800      -4.6123500      -1.6493000
H       -1.4868100       3.1184700       0.3447900
H       -2.7161800       2.7995100       1.5787400
H       -1.1663900       3.5788800       2.0584300
H        0.3939100      -2.3982700       1.4697400
H       -0.3752800      -1.3882900       2.7365500
H        1.0092800      -0.7486500       1.8227700
