15
dipolar_000097 reactant_1 @ TS geom
C       -3.9989100      -1.6094600       0.2652300
O       -2.7825400      -1.0201800      -0.2395600
C       -2.3387900       0.0662700       0.3902000
O       -2.9247900       0.6404600       1.2813500
C       -0.9864700       0.4393800      -0.0735000
C        0.1406900       0.8939900      -0.4832700
C        0.6270900       1.9945000      -1.4707200
C        0.5015000       3.4211600      -1.0323000
O        1.1229900       1.6431300      -2.5146600
H       -3.8773600      -1.8980000       1.3262000
H       -4.1686600      -2.5132400      -0.3416300
H       -4.8399400      -0.9184600       0.1653900
H       -0.5250200       3.7604300      -1.0368400
H        1.1137400       4.0791300      -1.7231900
H        0.9076300       3.5294700      -0.0130300
