11
dipolar_000097 reactant_2 @ TS geom
C        1.4749800      -0.0218000       0.0330400
C        2.9188200       0.4733300      -0.0672700
C        4.0380500      -0.5352800      -0.1517900
O        3.1005700       1.6766500      -0.1199200
N        1.1527100      -1.0634800       0.7494400
N       -0.0935600      -1.2398200       1.1029200
C       -0.5393400      -2.5018600       1.2010600
N       -1.0379400      -3.5537800       1.2986400
H        3.9455000      -1.1529500      -1.0660500
H        4.1070600      -1.2033400       0.7028700
H        5.0494800       0.0171300      -0.2456400
