17
dipolar_000271 reactant_2 (FRAG2 relaxed, reordered to d) type=dipolarophile
C       -0.9496100      -0.3996000       0.0536800
C       -2.3525500      -0.5042500       0.5054900
O        0.8443400      -1.1377100      -1.1729000
C        0.0154000      -1.6033700      -0.0933700
C       -0.1757400       0.6704800      -0.2336900
C        1.7770300      -0.4645700       0.8114000
C       -0.5127500       2.0363300      -0.1837300
C        1.2379200       0.0815800      -0.5274900
N       -0.7781800       3.1725700      -0.1511500
C        1.0058900      -1.5206900       1.0872900
H       -2.9292200      -1.1543700      -0.1740200
H       -2.8410200       0.4779900       0.5692700
H        0.9925300      -2.1691200       1.9623700
H        2.5749000      -0.0095200       1.3970500
H        1.9055600       0.6914500      -1.1438900
H       -0.4492800      -2.5718600      -0.3068800
H       -2.3852200      -0.9863800       1.4987400
