34
dipolar_000271 TS complex (tags stripped)
C       -2.4493300       0.4214100      -2.2565400
C       -2.2529500       1.0244100      -0.8855300
O       -2.3602300       2.2278200      -0.7129600
C       -1.8204800       0.1115300       0.2588700
C       -2.3907100       0.5054600       1.6167700
C       -3.0493700      -0.5337400       2.4991100
O       -2.2901000       1.6594000       2.0060300
N       -1.8378700      -1.2644900      -0.0530200
N       -0.8581200      -1.9727600       0.6973000
C        0.4992300      -1.0803300       0.8065900
C        1.3971200      -1.3828800      -0.4328300
O        0.6712700      -0.6361500      -1.4271200
C        0.8139000       0.6517100      -0.7917500
C        2.3458900       0.7247500      -0.6251800
C        3.1440000       1.9718300      -0.6971300
C        2.7141400      -0.5622900      -0.4056200
C        4.0205200      -1.0679700      -0.2003700
N        5.0906800      -1.4988700      -0.0296400
C        0.1386300       0.3461400       0.5710200
H       -2.7347700       1.2263700      -2.9585200
H       -3.2108400      -0.3704600      -2.2861500
H       -1.4958100      -0.0178300      -2.6134400
H       -3.8377500      -0.0358700       3.0936300
H       -2.2975200      -0.8937800       3.2451500
H       -3.4618900      -1.4020200       1.9825000
H       -1.7421700      -1.4503500      -1.0589100
H       -1.2666500      -1.8615000       1.6560400
H        0.9384000      -1.3774900       1.8351300
H        1.4874500      -2.4365000      -0.6674200
H        0.3651300       1.4579300      -1.3578500
H        2.8061600       2.6628500       0.0874600
H        4.2295300       1.7982500      -0.5761600
H        2.9835600       2.5000300      -1.6630100
H        0.1811700       1.1319500       1.3890000
