13
dipolar_000050 reactant_2 (FRAG2 relaxed, reordered to d) type=dipole
C        2.6543300      -0.7656200      -0.5147900
N        1.5331800      -0.1591600      -0.5190100
C        0.4810300       0.4582600      -0.6028400
O       -0.3909300       1.4342200       1.3436400
C       -0.5445500       0.5862000       0.4555100
N       -1.6436400      -0.1799600       0.3196100
C       -1.8030400      -1.2360200      -0.6624900
H        3.5324100      -0.2704800      -0.0886900
H        2.7235000      -1.7735700      -0.9351900
H       -1.3101600      -0.9527200      -1.6045700
H       -1.3756800      -2.1943600      -0.3240900
H       -2.8713800      -1.3840500      -0.8683100
H       -2.3455500      -0.0722900       1.0480200
