13
dipolar_000050 reactant_2 @ TS geom
C        4.3060300       1.9078000       0.3035700
N        2.9718200       1.3545200       0.5054500
C        2.6831400       0.0747700       0.2248800
O        3.5140400      -0.7371000      -0.1833200
C        1.2158100      -0.3297400       0.3832600
N        0.8342400      -0.9166500       1.4388200
C       -0.5050000      -1.3620600       1.6067000
H        5.0536400       1.5088800       1.0127800
H        4.6742400       1.6935900      -0.7186600
H        4.2730400       3.0056400       0.4274900
H        2.2603000       1.9542500       0.8904600
H       -0.9225900      -0.8606800       2.5668600
H       -0.4781600      -2.5027800       1.7980100
