30
dipolar_000050 TS complex (tags stripped)
C        4.3060300       1.9078000       0.3035700
N        2.9718200       1.3545200       0.5054500
C        2.6831400       0.0747700       0.2248800
O        3.5140400      -0.7371000      -0.1833200
C        1.2158100      -0.3297400       0.3832600
N        0.8342400      -0.9166500       1.4388200
C       -0.5050000      -1.3620600       1.6067000
C       -1.4755100      -0.9856300       0.0233400
F       -1.9296200      -2.2529500      -0.4018500
C       -2.6135800       0.0205900       0.3153900
C       -3.4168600       0.3614200      -0.9770300
C       -2.3874000       1.1559400      -1.8327500
C       -1.1019700       1.1469100      -0.9406800
C       -1.7491400       1.2895000       0.4559100
C       -0.5626900      -0.2839500      -0.8575300
H        5.0536400       1.5088800       1.0127800
H        4.6742400       1.6935900      -0.7186600
H        4.2730400       3.0056400       0.4274900
H        2.2603000       1.9542500       0.8904600
H       -0.9225900      -0.8606800       2.5668600
H       -0.4781600      -2.5027800       1.7980100
H       -3.2395200      -0.2825100       1.1560700
H       -4.3095500       1.0282400      -0.7073500
H       -3.8368500      -0.4927900      -1.4955900
H       -2.7320400       2.2365600      -1.9849100
H       -2.2490000       0.7503400      -2.8309900
H       -0.3628700       1.8927500      -1.2285200
H       -1.0143600       1.1968100       1.2627400
H       -2.3372400       2.1928100       0.5715700
H       -0.1427700      -0.7703900      -1.7913500
