13
dipolar_001155 reactant_2 (FRAG2 relaxed, reordered to d) type=dipolarophile
C       -2.0503900      -0.2582300       0.0865000
C       -0.2828800      -1.6252400      -0.4141500
O       -0.6176700      -0.8751400      -1.5975200
C        0.7365200      -0.6531200       0.2067500
C        0.2987000       0.5733100      -0.0857800
Cl       0.8440500       2.1091200       0.4535500
C       -0.9992800       0.3228300      -0.8920200
F        1.7359300      -1.0435300       0.9834900
C       -1.6004700      -1.4788700       0.3884600
H       -2.9243200       0.2772200       0.4551200
H        0.0784800      -2.6357500      -0.6338100
H       -2.0002400      -2.2252000       1.0736300
H       -1.3112900       1.1288100      -1.5642500
