13
dipolar_001155 reactant_2 @ TS geom
C       -0.9084600      -0.8481100      -0.9356900
C       -1.0070500      -0.6042600      -2.4950100
O       -0.2055100      -1.6817500      -3.0404300
C        0.9882500      -1.3634700      -2.2836100
C        1.1575000       0.1154500      -2.6271600
Cl       2.6403300       0.9766600      -2.6293000
C       -0.0919700       0.5686600      -2.7748000
F       -0.5286900       1.8112900      -2.9253100
C        0.4069600      -1.4540500      -0.8387500
H       -1.7816100      -1.3811100      -0.4666900
H       -2.0133100      -0.5828900      -2.9614400
H        1.8298400      -2.0324600      -2.5695900
H        0.6988700      -2.3200400      -0.2160400
