25
dipolar_001155 reactant_1 (FRAG1 relaxed, reordered to d) type=dipole
C        2.7346900      -0.2304800      -0.0063800
N        2.6142800       1.1023700       0.2048100
C        1.5105400      -0.9997000      -0.1405700
O        0.3300600      -0.3226600      -0.0443100
C        3.7787000       1.9436400       0.3847900
C        1.5070800      -2.3792200      -0.3571700
N        1.4608200      -3.5365900      -0.5401100
O        3.8446500      -0.7932900      -0.0886800
C       -1.8092600       1.5111500       0.1816600
C       -1.9768000       0.1170600       0.0007500
C       -0.8674600      -0.7762200      -0.1138600
C       -3.2796100      -0.4269900      -0.0746300
C       -4.2153100       1.7839300       0.2088300
C       -2.9251600       2.3316800       0.2841500
C       -4.3893800       0.4065000       0.0296000
H        4.4671000       1.8631900      -0.4712000
H       -1.0112700      -1.8522400      -0.2653700
H        1.6902500       1.5075700       0.3030600
H        4.3433800       1.6773900       1.2942800
H       -0.8034800       1.9315000       0.2370700
H       -3.4025200      -1.5031900      -0.2153100
H       -5.3947500      -0.0152700      -0.0292200
H       -5.0873300       2.4367300       0.2893900
H       -2.7972800       3.4071800       0.4231900
H        3.4508400       2.9869500       0.4718700
