25
dipolar_002154 reactant_1 (FRAG1 relaxed, reordered to d) type=dipole
C       -0.1096300      -1.8083000      -2.3586300
O       -2.3624800      -0.9815900      -2.2855500
C       -0.9204000      -0.1273400      -0.6344200
O        0.2997400      -0.2733200      -0.2061500
C       -1.8906800       0.6599500       0.1600400
C       -1.2363800      -0.9760000      -1.8074500
C       -3.9320100       1.8232200       0.1805800
O       -2.9051600       1.1268500      -0.5493800
O       -1.7512700       0.8088600       1.3611200
C        0.8512500       1.3886700       1.4553200
C        1.1078700       0.2336000       0.6811100
N        0.7501100       2.3710700       2.0743100
C        2.4472900      -0.3828900       0.7681900
O        2.5955500      -1.4089100      -0.0618400
O        3.2947100       0.0276600       1.5389300
C        3.8706600      -2.0733800      -0.0421100
H       -0.4842900      -2.3897100      -3.2099000
H        0.2857900      -2.4832000      -1.5838700
H        0.7242100      -1.1642400      -2.6786000
H       -4.3870200       1.1551800       0.9254500
H       -4.6733500       2.1269500      -0.5663400
H       -3.5080800       2.7039100       0.6834100
H        4.6704800      -1.3705800      -0.3150900
H        4.0675200      -2.4878600       0.9567900
H        3.7986800      -2.8775800      -0.7825200
