24
dipolar_001512 reactant_1 (FRAG1 relaxed, reordered to d) type=dipolarophile
C       -2.1691900      -1.1325100       0.4699800
N        2.3155600      -0.0862300       0.7362900
C        0.1367400      -0.4475200      -0.1997900
O        0.3031000       1.9477900      -0.0137500
C       -0.3209500       0.8211500      -0.3425600
C       -0.3501500       3.2023700      -0.2569700
C        1.3578600      -0.9816300       0.3929300
C       -1.7792300       0.6836400      -0.8583100
C       -1.0737100      -1.3102800      -0.6066500
O       -1.6273300      -0.4923300      -1.6643200
C       -2.6034500       0.1228400       0.3233500
O        1.5141000      -2.2053900       0.5729300
C        3.5556200      -0.5017800       1.3556100
H       -2.4445400      -1.8808100       1.2125700
H       -3.3243400       0.6919900       0.9086300
H       -0.8519500      -2.3291300      -0.9395400
H       -2.1967300       1.5261000      -1.4178700
H        0.3264200       3.9753200       0.1259200
H        2.1295700       0.9022500       0.6021600
H       -0.5113700       3.3516000      -1.3349700
H       -1.3085300       3.2509600       0.2807000
H        4.1139600      -1.2009500       0.7120900
H        4.1791700       0.3835700       1.5319400
H        3.3817800      -1.0058000       2.3211000
