24
dipolar_001512 reactant_1 @ TS geom
C        2.9261600      -2.1827300       1.8469800
N        1.9676400      -1.4687700       1.0309300
C        2.3222600      -0.3778500       0.3260400
O        3.5040400       0.0524600       0.2922300
C        1.2872600       0.2830300      -0.4736600
C        1.4169900       1.7670100      -0.8747800
C        2.2235400       1.7848800      -2.1982400
C        1.4006000       1.2639500      -3.1148600
C        0.0957800       0.9508800      -2.3352000
O        0.0881500       2.0075700      -1.3759000
C        0.4795000      -0.2334700      -1.4046800
O        0.2335400      -1.5395600      -1.6566700
C       -0.5384600      -1.8635100      -2.8058500
H        3.8049300      -2.4343700       1.2170700
H        3.2803200      -1.5931800       2.6970300
H        2.4756500      -3.1106900       2.2002600
H        0.9554700      -1.6168300       1.2202100
H        1.6849300       2.5220800      -0.0825400
H        3.2668300       2.0141600      -2.2316600
H        1.5826300       0.9357400      -4.0993700
H       -0.8566100       0.9176200      -2.8835400
H       -1.5224800      -1.4463400      -2.7236200
H        0.0000100      -1.5029100      -3.6886500
H       -0.5488700      -2.9526100      -2.7839600
