17
dipolar_000145 reactant_1 (FRAG1 relaxed, reordered to d) type=dipole
C       -3.1914800       0.9118800       0.2516600
N       -1.2900000      -0.5594900      -0.0954900
C       -2.5769800      -0.4017600      -0.0498100
O        1.1215300      -1.3451100      -0.2897800
N       -0.3755700       0.3919200       0.1085100
N        1.8832600       0.7517100       0.2000000
C        3.2663000       0.4299700      -0.0719800
C        0.8832700      -0.1450400      -0.0179500
H       -4.2866100       0.8426200       0.2440200
H       -2.8711200       1.6700300      -0.4848300
H       -3.1661100      -1.2986500      -0.2482600
H       -0.8962400      -1.4939100      -0.3068900
H        1.6120700       1.7262400       0.2705700
H        3.9105700       1.2038200       0.3662200
H        3.5306800      -0.5367700       0.3799100
H        3.4885700       0.3670300      -1.1532300
H       -2.8585600       1.2798400       1.2384500
