14
dipolar_000145 reactant_2 @ TS geom
C       -1.3835900       0.1521800       0.0789800
O       -1.5903500       0.0858300       1.4803700
C       -2.5820700      -0.8813500       1.8473900
O       -2.4712000       0.8033800      -0.5650400
C       -2.9060300       2.1098700      -0.1848600
C       -0.0027000       0.7572300      -0.1381400
F        0.0343000       1.6958900      -1.1050900
F        0.6446900       1.2961300       0.9413400
H       -2.8820400      -0.7149500       2.8770200
H       -3.4694500      -0.7928200       1.1872500
H       -2.1706500      -1.9053400       1.7447400
H       -2.1851100       2.8738900      -0.4665600
H       -3.8524300       2.2876600      -0.7834300
H       -3.1662600       2.1799200       0.8717600
