33
dipolar_000360 TS complex (tags stripped)
C       -0.4960800       4.2357700      -0.3802500
O       -0.0923300       2.8896500      -0.6634000
C        0.4552900       2.2290100       0.3616500
O        0.6200300       2.7164000       1.4729600
C        0.9527000       0.9201100       0.0673900
C        1.7708100       0.0605900       0.0121600
O        2.7136900      -0.8409500       0.0853300
C        3.4852500      -0.5769300       1.3025300
C       -0.0281100      -2.0260100      -0.8193900
C        0.8366000      -2.8436200      -1.5767600
N        1.5715300      -3.5588200      -2.1427000
C        0.0460000      -2.2279600       0.5811700
N        0.1870400      -2.5497800       1.6959800
N       -0.6615600      -0.9576800      -1.4392800
C       -0.4113400      -0.8380500      -2.8955500
C       -1.4176500      -0.0073300      -0.9157900
C       -1.9461600       0.0067600       0.4581200
O       -2.3069400      -0.9994100       1.0514700
O       -2.1255000       1.2488100       0.9116700
C       -2.7528500       1.3832800       2.2007300
H        0.3729200       4.8338300      -0.0415100
H       -1.2610800       4.2381200       0.4065000
H       -0.8892800       4.6345600      -1.3102600
H        4.3575200      -1.1544000       1.2293700
H        2.8491400      -0.8245900       2.1687900
H        3.7147700       0.5320800       1.3425200
H       -1.1476900      -0.1389000      -3.3096800
H       -0.5262400      -1.8130200      -3.3774100
H        0.6019400      -0.4574400      -3.0260300
H       -1.5511500       0.8779800      -1.5038300
H       -2.1683800       0.8669400       2.9760400
H       -2.8014000       2.4586500       2.4177700
H       -3.7754600       0.9613500       2.1769500
