20
dipolar_001528 reactant_1 (FRAG1 relaxed, reordered to d) type=dipole
C        0.1335900      -1.7913300       0.9494300
O       -2.1963700      -0.2670800       0.2217300
C        0.1293900      -0.4766700       0.2521900
O       -0.9534200       1.4017900      -0.6969600
C       -0.9973900       0.2998300      -0.1168500
C        2.5559700      -0.3297900       0.0779000
N        1.3302200       0.0916900      -0.0975700
C       -3.3633100       0.4690600      -0.1302200
C        3.7295200       0.4493700      -0.3903200
H        0.6252500      -2.5778400       0.3442500
H       -0.8906000      -2.1184400       1.1634500
H        2.6929600      -1.2870100       0.5847600
H        0.6861800      -1.7476400       1.9082400
H        1.2055800       0.9936100      -0.5745500
H       -3.3806300       1.4546000       0.3611300
H       -3.4316000       0.6176300      -1.2194100
H        3.4225300       1.3878100      -0.8771500
H       -4.2180000      -0.1278800       0.2134600
H        4.4007800       0.6947400       0.4515600
H        4.3304100      -0.1369900      -1.1078700
