28
dipolar_001528 reactant_2 (FRAG2 relaxed, reordered to d) type=dipolarophile
C        1.3047500      -1.8324400       0.4172200
C       -0.1938700       0.6478800       0.5768100
C       -2.2177900       0.2351700      -2.4669700
Cl      -1.4682600      -1.0943200       2.1568000
Cl       0.2234500       1.0714000       3.2310500
C       -0.8540700       0.5541200      -3.0055500
C        0.3231300       0.5928700      -2.0088500
C       -0.0924800       0.7824400      -0.6243600
C        1.3545900       1.6483700      -2.4342200
C        1.9044600      -1.2157600      -0.8780900
C        1.2520900      -0.9595000       1.6864600
C        0.9432400      -0.8580200      -2.0305600
C        0.0114100      -0.0602300       1.8173600
O       -0.6460000       0.7415500      -4.1906500
H       -2.5878200       1.1139100      -1.9117500
H       -2.1748700      -0.5960000      -1.7470800
H       -2.9079900       0.0053800      -3.2888900
H        0.1205000      -1.5912800      -2.0468100
H        0.9294700       2.6603600      -2.3625000
H        1.6548000       1.4663000      -3.4747200
H        2.2439600       1.5977300      -1.7908000
H        2.5340200      -0.3468100      -0.6253100
H        2.1267100      -0.2908200       1.7151700
H        2.5970400      -1.9626700      -1.2954700
H        1.2914200      -1.5885000       2.5881200
H        1.9294300      -2.6974200       0.6864700
H        1.4667000      -0.9458400      -2.9948700
H        0.3034000      -2.2468800       0.2154200
