28
dipolar_001528 reactant_2 @ TS geom
C       -0.1072900      -0.2478100      -1.1593300
C       -0.3259000      -0.4909700       0.0102300
C       -0.3131300      -1.5766300       0.9713800
Cl      -0.6033500      -1.0867100       2.6972100
Cl      -1.7338400      -2.7496200       0.5440400
C        1.0109900      -2.3721500       0.8806200
C        1.8055400      -2.2933800      -0.4350200
C        1.2636000      -2.8159000      -1.7844400
C        0.0937300      -2.1404900      -2.5307200
C        0.0514300      -0.5634700      -2.5842100
C       -1.1822400      -0.1176300      -3.3914000
C        1.3712000      -0.0589200      -3.1915000
C        1.4911100      -0.0901700      -4.6899800
O        2.2899300       0.3200200      -2.4810400
H        0.7866900      -3.3691300       1.1650600
H        1.6712400      -1.9254500       1.6672600
H        2.7299000      -2.8567800      -0.2229500
H        2.1757000      -1.2330800      -0.5630000
H        0.9939700      -3.8523300      -1.6505300
H        2.1345400      -2.7874200      -2.4559700
H       -0.8562200      -2.3995100      -2.0227100
H        0.0633500      -2.4867400      -3.5245200
H       -1.2495100       0.9854900      -3.4403300
H       -1.1751700      -0.5425400      -4.3618300
H       -2.0858500      -0.4675000      -2.8360300
H        0.8603000       0.7173100      -5.1193000
H        1.0523900      -1.0430200      -5.1002300
H        2.5077300       0.0206100      -5.0065900
