11
dipolar_000262 reactant_1 @ TS geom
C        5.1262800      -0.1302300      -0.8506800
N        3.7447000       0.2318100      -0.6358700
C        2.8168500      -0.7028700      -0.3553400
O        3.0657200      -1.9147100      -0.2767400
C        1.5236700      -0.1747700       0.0103300
C        0.5366800       0.2185400       0.5522600
Br      -0.5349100       0.7911000       1.8870400
H        5.5600800      -0.5971600       0.0481400
H        5.6858700       0.7730600      -1.0916300
H        5.2055400      -0.8450200      -1.6790700
H        3.4568000       1.2125400      -0.6639200
