14
dipolar_000262 reactant_2 (FRAG2 relaxed, reordered to d) type=dipole
C       -0.3519600      -0.6281000      -0.1262300
C        2.2183900      -0.8549700      -0.0689500
C        0.9652300      -0.0314100       0.0328400
O       -1.3602900       0.2560100      -0.0083900
O       -0.5182500      -1.8187100      -0.3459100
C       -2.6873400      -0.2628700      -0.1549700
N        1.0319000       1.2536700       0.2672400
N        1.0955700       2.3685400       0.4711900
H        2.2889600      -1.3288200      -1.0610100
H        2.2171100      -1.6534700       0.6900000
H        3.1096200      -0.2316300       0.0831000
H       -3.3617400       0.5920400      -0.0268200
H       -2.8942200      -1.0244700       0.6112900
H       -2.8245400      -0.7046800      -1.1529800
