11
dipolar_000262 reactant_1 (FRAG1 relaxed, reordered to d) type=dipolarophile
C       -3.0343600       1.2792500       0.6539300
N       -3.1490600      -0.1451700       0.4074200
C       -2.1632700      -1.0120200       0.1087200
O       -2.3547000      -2.2173600      -0.0924900
C       -0.8118700      -0.4641300       0.0266700
C        0.3418800      -0.0951300      -0.0635400
Br       2.0404500       0.4577200      -0.1949300
H       -3.5916800       1.8548700      -0.1015400
H       -3.4322100       1.5335100       1.6482700
H       -4.0769100      -0.5627500       0.4498000
H       -1.9814100       1.5830700       0.6141200
