25
dipolar_000262 TS complex (tags stripped)
C        5.1262800      -0.1302300      -0.8506800
N        3.7447000       0.2318100      -0.6358700
C        2.8168500      -0.7028700      -0.3553400
O        3.0657200      -1.9147100      -0.2767400
C        1.5236700      -0.1747700       0.0103300
C        0.5366800       0.2185400       0.5522600
Br      -0.5349100       0.7911000       1.8870400
C       -1.3037900       0.4089600      -1.4717100
C       -1.5366000       1.8923500      -1.3928800
C       -2.1306200      -0.6278100      -0.8741100
O       -1.9745800      -1.8356000      -1.0115300
O       -3.1179500      -0.0792300      -0.1482000
C       -4.0363400      -0.9819600       0.4767700
N       -0.2411600      -0.0497500      -2.0773500
N        0.7050800      -0.4647100      -2.6089800
H        5.5600800      -0.5971600       0.0481400
H        5.6858700       0.7730600      -1.0916300
H        5.2055400      -0.8450200      -1.6790700
H        3.4568000       1.2125400      -0.6639200
H       -0.6368900       2.4655000      -1.6390500
H       -2.3333100       2.0802000      -2.0836600
H       -1.8624300       2.1810800      -0.3705800
H       -4.5477200      -1.5907500      -0.2885800
H       -4.7671700      -0.3500700       0.9997500
H       -3.5228100      -1.6395100       1.1855400
