19
dipolar_000455 reactant_1 @ TS geom
C       -1.2691700      -0.7454700       0.0460900
C       -2.0523000      -1.3480400       1.2636800
O       -1.9946700      -1.0575300      -1.1701400
C       -2.6049200      -2.3285900      -1.3961500
C        0.1810300      -1.3711500      -0.0461800
C        0.7437800      -2.0362500       1.1789200
C        0.6333200      -1.9847700      -1.3434200
H       -1.6196800      -0.9212500       2.1796200
H       -3.0985200      -0.9981100       1.1949900
H       -2.0864400      -2.4518500       1.4071100
H       -1.9143700      -3.1757300      -1.3643500
H       -3.0235500      -2.2798000      -2.4477500
H       -3.4642300      -2.5306200      -0.7325700
H        0.6183600      -1.4017300       2.0695000
H        0.2657800      -3.0066500       1.4154700
H        1.8166000      -2.2263000       1.0266400
H        1.7284100      -1.8305500      -1.4186400
H        0.4744600      -3.0829500      -1.3989000
H        0.1537700      -1.5386200      -2.2239500
