20
dipolar_000455 reactant_2 (FRAG2 relaxed, reordered to d) type=dipole
C        4.2708800      -0.2846300      -0.2415000
O        2.9475500       0.0884500       0.1659600
C        1.9354400      -0.4725700      -0.5083000
O        2.0792500      -1.2643400      -1.4283800
C        0.6427300      -0.0350500      -0.0258800
N       -0.5222300      -0.4915000      -0.5953400
C       -1.5661300       0.0398200       0.0007900
C       -2.9766700      -0.2391200      -0.3492600
C       -4.0228900       0.4681900       0.4490600
O       -3.1950300      -1.0225600      -1.2608000
O       -1.1725400       0.8551300       0.9718800
C        0.2780200       0.8598300       1.0202500
O        0.8514200       1.5400300       1.8389500
H        4.4264700      -1.3650700      -0.1072300
H        4.9540200       0.2786900       0.4045500
H        4.4403300      -0.0197800      -1.2953000
H       -0.5829900      -1.1540200      -1.3726500
H       -3.8981400       0.2372600       1.5196000
H       -5.0190200       0.1626600       0.1067300
H       -3.8999100       1.5583500       0.3392100
