19
dipolar_000455 reactant_1 (FRAG1 relaxed, reordered to d) type=dipolarophile
C       -1.0479800      -0.2140200      -0.0889200
C       -1.2630000      -1.7032100      -0.0143000
O        1.2774300      -0.5370200      -0.1746500
C        0.5349400       1.7863100      -0.1973600
C       -2.3176500       0.5922500      -0.1449600
C        0.1889900       0.3270100      -0.1274200
C        2.3778400      -0.2434800       0.6735600
H       -0.3256300      -2.2570500       0.1183400
H        3.0683300      -1.0958900       0.6025600
H        2.0603200      -0.1311000       1.7255200
H        1.0154600       2.1374700       0.7312500
H        1.2502100       1.9666400      -1.0176300
H        2.9174100       0.6677600       0.3648500
H       -1.9409300      -1.9543100       0.8206400
H       -2.9242900       0.4193200       0.7620500
H       -2.1562300       1.6735800      -0.2378700
H       -0.3486400       2.4113900      -0.3682700
H       -2.9433500       0.2690800      -0.9966000
H       -1.7555600      -2.0751600      -0.9313300
