20
dipolar_001243 reactant_2 (FRAG2 relaxed, reordered to d) type=dipole
C        0.6146700       0.1503700       0.0764200
C        1.8878500       0.7905000       0.3169600
C       -1.5510700      -0.2759200      -0.1753000
O       -1.1852900      -2.6347200      -0.6775600
O        0.5121600      -1.1598500      -0.2233900
C       -0.8459800      -1.4930100      -0.3965500
C       -0.9241200       2.0821300       0.3945100
C       -3.0191100      -0.0754700      -0.2346400
O        1.9577700       1.9926900       0.5930000
N       -0.6211000       0.6798700       0.1039900
C        3.1032500      -0.0928800       0.2088900
H        3.1791600      -0.5196500      -0.8041200
H        3.0320500      -0.9373700       0.9127300
H       -0.4156500       2.7248300      -0.3333100
H       -2.0066100       2.2259400       0.3307300
H       -3.4313100       0.2632600       0.7302500
H       -0.5697400       2.3319200       1.4015100
H        3.9990500       0.5012500       0.4295000
H       -3.3062900       0.6619600      -1.0023000
H       -3.4884200      -1.0354900      -0.4893900
