44
dipolar_001243 TS complex (tags stripped)
C       -0.3733000      -2.8904500       1.5914600
O       -0.3636300      -1.4750100       1.4962600
C       -0.8815500      -0.8753200       0.3938500
C       -1.6986700      -1.5948100      -0.6777000
C       -1.3287100      -1.2233700      -2.1387800
C       -1.6865900       0.2859800      -2.2248800
C       -2.1776200       0.5975200      -0.7930800
C       -2.9674500      -0.7091200      -0.4874400
C       -1.0920700       0.4383800       0.2979600
C       -1.2532400       1.2971800       1.4859700
F       -0.4167100       1.0295700       2.5019800
F       -2.5188600       1.1124400       2.0033000
F       -1.1783200       2.6321900       1.2520800
C        1.1741900       1.5098600      -0.7105200
C        0.8069000       2.8498000      -1.2195200
C        1.6439700       1.2377500       0.6232600
O        1.9316800       1.9772500       1.5555200
O        1.8758700      -0.1282600       0.6590200
C        1.6390200      -0.6572700      -0.5795900
C        2.0278100      -1.9923900      -0.8956000
C        2.8128300      -2.7219500       0.1686700
O        1.7961800      -2.5019600      -2.0096700
N        1.3414800       0.3801000      -1.4112300
C        1.5173900       0.3410400      -2.8680400
H       -1.4043000      -3.2684200       1.6427900
H        0.1509800      -3.3403800       0.7522600
H        0.1436800      -3.1122000       2.5316700
H       -1.7527800      -2.6576700      -0.5177400
H       -1.9906200      -1.8145600      -2.8078800
H       -0.3050800      -1.4682500      -2.4298200
H       -0.8822000       0.9310900      -2.5908900
H       -2.5432900       0.4554900      -2.9119800
H       -2.7087200       1.5492400      -0.7113400
H       -3.7370300      -0.9342600      -1.1430400
H       -3.2701200      -0.7333300       0.5824100
H        1.6866200       3.2393200      -1.6572000
H       -0.0313800       2.8397500      -1.9407400
H        0.4935400       3.4819800      -0.3582800
H        3.8261800      -2.2624400       0.1595000
H        2.4131000      -2.5743700       1.1769300
H        2.8955600      -3.7748800      -0.0839700
H        1.5694700       1.3773000      -3.2007800
H        0.7442000      -0.1929500      -3.3969400
H        2.4910600      -0.1447300      -3.0441200
