19
dipolar_001420 reactant_2 @ TS geom
C        0.2397500       3.4868300       1.5828100
O       -0.1589800       2.5500400       0.5790500
C       -1.0175100       1.5859600       0.9542000
O       -1.4458700       1.4831800       2.0940100
C       -1.4094000       0.7470900      -0.1838900
C       -1.0022800       0.9615800      -1.6655600
C       -2.2212700       1.6479900      -2.3360500
C       -3.1727100       0.7111200      -2.3612200
C       -2.5151400      -0.5383300      -1.7099300
O       -1.1620900      -0.3767600      -2.1589100
C       -2.3652200      -0.1739100      -0.2205100
H       -0.6645600       4.0267800       1.9484400
H        0.7183800       2.9813300       2.4121100
H        0.9092100       4.1867500       1.0881100
H        0.0213400       1.3463100      -1.8871500
H       -2.2551100       2.6916800      -2.5212000
H       -4.2024400       0.7721200      -2.5702800
H       -2.8984000      -1.5418200      -1.9766900
H       -2.9551600      -0.5664300       0.5900900
