46
dipolar_001420 TS complex (tags stripped)
C        0.2397500       3.4868300       1.5828100
O       -0.1589800       2.5500400       0.5790500
C       -1.0175100       1.5859600       0.9542000
O       -1.4458700       1.4831800       2.0940100
C       -1.4094000       0.7470900      -0.1838900
C       -1.0022800       0.9615800      -1.6655600
C       -2.2212700       1.6479900      -2.3360500
C       -3.1727100       0.7111200      -2.3612200
C       -2.5151400      -0.5383300      -1.7099300
O       -1.1620900      -0.3767600      -2.1589100
C       -2.3652200      -0.1739100      -0.2205100
C       -0.6615000      -2.6216100       0.3750800
C       -1.2922600      -2.3354900       1.6075000
C       -2.5970600      -3.0427500       1.8959200
O       -0.8267800      -1.5088000       2.4417000
O        0.3232200      -1.8371100      -0.1241500
C        1.0924300      -0.9211000       0.3568700
C        1.3325700      -0.7453300       1.8365900
C        1.8705800      -1.9840000       2.5001800
O        1.3941200       0.3581100       2.3498200
C        1.9094300      -0.2254500      -0.6288100
C        1.9867300      -0.7212200      -1.9528000
C        2.7774800      -0.0818300      -2.8998200
C        3.4995800       1.0700000      -2.5582600
C        3.4239500       1.5744500      -1.2563800
C        2.6433600       0.9357400      -0.2941600
H       -0.6645600       4.0267800       1.9484400
H        0.7183800       2.9813300       2.4121100
H        0.9092100       4.1867500       1.0881100
H        0.0213400       1.3463100      -1.8871500
H       -2.2551100       2.6916800      -2.5212000
H       -4.2024400       0.7721200      -2.5702800
H       -2.8984000      -1.5418200      -1.9766900
H       -2.9551600      -0.5664300       0.5900900
H       -1.1831500      -3.1542200      -0.4315200
H       -2.4363000      -3.8032600       2.6526200
H       -3.3507400      -2.3165500       2.3284800
H       -3.0605000      -3.4967800       1.0014300
H        2.9650300      -1.9182300       2.3149300
H        1.6453000      -1.9512900       3.5250000
H        1.5008700      -2.8832500       1.9899500
H        1.4106500      -1.6009500      -2.2240100
H        2.8491000      -0.4963300      -3.9069200
H        4.1396600       1.5539000      -3.3035800
H        3.9926800       2.4698800      -0.9867900
H        2.5752400       1.3587000       0.7054600
