21
dipolar_000078 reactant_2 (FRAG2 relaxed, reordered to d) type=dipole
C        1.1548100       0.6639800       0.2182000
N       -1.0754800      -0.0933200      -0.4504000
C        0.0833700      -0.3595100       0.2093100
O        1.0215800       1.7552800      -0.3718700
C        0.1760800      -1.6602900       0.8636200
C       -1.4928500       0.9567000      -1.1416500
C       -2.7761900       0.9390600      -1.7244100
O        1.1886500      -2.0012200       1.4946700
N        2.2770000       0.3593600       0.8943800
C       -0.9892700      -2.6243400       0.7720400
C        3.3856400       1.2848800       0.9668700
N       -3.8320100       0.9623400      -2.2221100
H        2.3040100      -0.5573600       1.3445100
H       -0.8334000       1.8150000      -1.2457700
H        3.7743800       1.5306400      -0.0350100
H       -1.7599400      -0.8546800      -0.3998500
H       -1.9050300      -2.1983800       1.2133500
H       -1.2074700      -2.8989100      -0.2731100
H        3.0930900       2.2315200       1.4503900
H       -0.7245200      -3.5335000       1.3251400
H        4.1916800       0.8265200       1.5530800
