21
dipolar_000078 reactant_2 @ TS geom
C       -3.5159400      -0.7386700       1.2896800
N       -2.3628900       0.0628900       0.9193800
C       -1.6058000      -0.2619300      -0.1502000
O       -1.8574500      -1.2816900      -0.8223900
C       -0.5192600       0.6407300      -0.5936600
C       -0.4098400       2.0783900      -0.5109100
C       -1.4501200       2.8954500       0.2149400
O        0.5480000       2.6525000      -1.0727300
N        0.5622200       0.0862800      -1.2136400
C        0.9394100      -1.1664200      -1.3530400
C        2.1773800      -1.4990100      -1.9213300
N        3.2021000      -1.8274200      -2.3817000
H       -3.2270800      -1.7553500       1.6057200
H       -4.0428700      -0.2486000       2.1204300
H       -4.2140800      -0.8368700       0.4414100
H       -2.0703100       0.7932000       1.5585100
H       -1.2974400       3.9528200      -0.0218100
H       -1.3587400       2.7725100       1.3143600
H       -2.4609300       2.5797900      -0.0684700
H        1.1519600       0.8199500      -1.6367000
H        0.3543700      -1.9556300      -0.8303600
