18
dipolar_001277 reactant_1 (FRAG1 relaxed, reordered to d) type=dipolarophile
C       -0.6850500      -0.7865500      -0.5647500
C        0.4490700      -0.0624400       0.2014300
C        1.8514600      -0.0450800      -0.2223200
O        2.1841000      -0.6026400      -1.2672700
C       -0.1770200       0.5904100       1.1970200
C        2.8468100       0.6756800       0.6487400
C       -2.1394100       0.9556400      -0.2717400
C       -1.5265300       0.3037300      -1.2641200
O       -1.5516900      -1.1106200       0.5408600
C       -1.6689500       0.2440600       1.0189700
H       -0.4002900      -1.6671000      -1.1487100
H        2.8213100       0.2747200       1.6739600
H        3.8559300       0.5679800       0.2300900
H       -2.3098900       0.3212700       1.9034900
H        0.2319000       1.2729200       1.9412600
H        2.5859600       1.7443300       0.7122500
H       -2.7826900       1.8342600      -0.3022100
H       -1.5333100       0.4986500      -2.3359800
