18
dipolar_001277 reactant_1 @ TS geom
C       -0.9688500      -1.0032800       0.1756700
C       -2.0993100      -0.6439200      -0.6549200
C       -3.4257300      -0.4513300       0.0517000
O       -2.0050500      -0.4615100      -1.8825100
C       -1.1033400      -1.7084200       1.5373700
C       -1.3275900      -3.2016000       1.2334600
C       -0.1457500      -3.6277200       0.7654700
C        0.7888500      -2.4017600       0.8200500
O        0.2635200      -1.7302000       1.9755200
C        0.4438800      -1.2934500      -0.2958700
H       -3.2937000       0.2258900       0.9136300
H       -3.7939000      -1.4086700       0.4403800
H       -4.1658200      -0.0256300      -0.6416600
H       -1.7568500      -1.2324300       2.2750300
H       -2.2796600      -3.7559400       1.3807900
H        0.1222800      -4.6574500       0.4457100
H        1.8479600      -2.6149000       0.8962800
H        0.4424700      -1.7723200      -1.3644700
