25
dipolar_001277 reactant_2 (FRAG2 relaxed, reordered to d) type=dipole
C       -4.8843300       0.0381400       0.0492400
N       -3.4770300      -0.2406600      -0.1534500
C       -2.4967800       0.5148700       0.3692700
O       -2.6716400       1.5152100       1.0697700
C       -1.1299700       0.0233700       0.0172300
O       -0.9996000      -1.0657300      -0.7348200
C        0.3979700      -1.3424100      -0.9307100
O        0.7311100      -2.3009100      -1.5940700
C        1.0464500      -0.3029100      -0.2159000
C        2.4856100      -0.1700000      -0.1256400
O        2.9020300       0.8859000       0.5924800
O        3.2579600      -0.9545400      -0.6590900
C        4.3191800       1.0597800       0.7128000
N        0.0520900       0.5092500       0.3465100
C        0.2929900       1.7025200       1.1669600
H       -4.9858300       0.9319900       0.6747200
H       -5.3788200      -0.8084000       0.5498400
H       -0.6739800       2.1204300       1.4497800
H       -3.2184000      -1.0456400      -0.7169300
H        4.7789200       1.1971500      -0.2766800
H        4.7761600       0.1909700       1.2084600
H        4.4600900       1.9596800       1.3227700
H        0.8680000       1.4104400       2.0525100
H        0.8741600       2.4211900       0.5790900
H       -5.3868100       0.2153900      -0.9141000
