17
dipolar_000404 reactant_2 @ TS geom
C       -0.1964800      -1.1246800       0.6580000
C       -0.6355300      -2.1856800      -0.3277100
C       -1.8413100      -2.9307900       0.3572300
C       -2.9616500      -1.8526500       0.3739300
C       -2.3027200      -0.6431300      -0.3476800
C       -1.4162000      -1.3609200      -1.3814600
C       -1.1630700      -0.0205300       0.5175900
F       -1.6057400       0.5256600       1.7254500
H        0.2577300      -1.4177700       1.6389700
H        0.1458700      -2.8537400      -0.6781800
H       -1.6218300      -3.3486800       1.3334700
H       -2.1370500      -3.8212300      -0.3021100
H       -3.3447200      -1.6512300       1.3671800
H       -3.8642800      -2.2047700      -0.2405100
H       -3.0085100       0.1145200      -0.6901800
H       -1.9962400      -1.9774700      -2.0655600
H       -0.7911800      -0.6628700      -1.9356300
