17
dipolar_000404 reactant_2 (FRAG2 relaxed, reordered to d) type=dipolarophile
C       -0.1097700       1.0329600       0.2345600
C        0.8894700      -0.0557400       0.5426900
C        0.8061800      -1.0352000      -0.3647100
C       -1.6431000      -0.6977700      -0.5534500
C       -0.2884900      -0.5842300      -1.3276600
C       -0.0855800       0.9489000      -1.3067700
C       -1.5162400       0.4129800       0.5310000
F        1.6073700      -0.0504800       1.6762000
H        0.0842700       2.0032400       0.7086400
H        1.2896600      -2.0120000      -0.3422700
H       -1.5795900       0.0253800       1.5579100
H       -1.7833300      -1.7006900      -0.1254600
H       -2.2947900       1.1811300       0.4121300
H       -2.4882600      -0.4991200      -1.2300900
H       -0.2852400      -1.0734200      -2.3102800
H        0.8762400       1.2615700      -1.7389000
H       -0.9089400       1.5044400      -1.7821900
