24
dipolar_001353 reactant_2 (FRAG2 relaxed, reordered to d) type=dipole
C        0.4083200      -0.1181900      -0.0000500
N       -2.0645000      -0.2008000      -0.2046200
C        1.5839000      -0.4911300      -0.7039500
C       -0.8488400      -0.8057000      -0.2759100
C       -0.8789200      -2.2744800      -0.5434900
C        0.5563300       0.8858600       0.9917100
C        1.7857900       1.5017900       1.2291600
C       -2.1764800       1.2741000      -0.1774700
C       -3.2446900      -0.8449900      -0.2449300
C        2.8111700       0.1190400      -0.4554400
C        2.9252800       1.1296100       0.5083100
H        1.5213900      -1.2600600      -1.4766500
H       -1.2782300       1.7321900      -0.5996800
H       -0.2949800       1.1643400       1.6125200
H        3.6888900      -0.1904200      -1.0292600
H        3.8874200       1.6098600       0.7004100
H       -1.4784500      -2.5119900      -1.4452600
H       -3.2815500      -1.9287200      -0.2145500
H        0.1302900      -2.6824900      -0.6714900
H       -2.3298800       1.6300200       0.8488700
H        1.8563400       2.2695000       2.0045500
H       -1.3556400      -2.8324600       0.2887700
H       -4.1505500      -0.2470200      -0.2966900
H       -3.0430400       1.5582100      -0.7858000
