24
dipolar_001628 reactant_2 (FRAG2 relaxed, reordered to d) type=dipole
C       -2.8484000       0.4067100      -0.1259600
C       -3.6153000       1.4751000      -0.8284400
C       -3.5262100      -0.6619900       0.6537200
N       -1.5266400       0.4011700      -0.1909300
C       -0.6206900      -0.4570900       0.3646200
C        0.7862900      -0.3135700       0.1788300
C        1.6702000      -1.2437300       0.8034400
C        3.0502600      -1.1533500       0.6586000
C        3.6316500      -0.1352400      -0.1138300
C        2.7839100       0.7903400      -0.7381200
C        1.3994700       0.7111200      -0.6020100
H       -4.3091700       1.0459200      -1.5745100
H       -1.1248500       1.1605000      -0.7434600
H       -2.9479700       2.1803200      -1.3475500
H       -4.2393300       2.0513500      -0.1208700
H       -4.6172300      -0.5442400       0.6164500
H       -3.2087900      -0.6509400       1.7147800
H       -1.0178400      -1.2695200       0.9688500
H       -3.2678600      -1.6675500       0.2680700
H        1.2410200      -2.0456400       1.4111400
H        3.6877100      -1.8896800       1.1569700
H        4.7157800      -0.0661600      -0.2260500
H        3.2102800       1.5933100      -1.3466200
H        0.7860900       1.4591700      -1.1131400
