24
dipolar_001628 reactant_2 @ TS geom
C       -8.8213900       1.7708600      12.3129800
C       -8.5254800       3.2612900      12.3268400
C      -10.2965700       1.4711200      12.1290300
N       -8.0186200       1.0118000      11.4771200
C       -6.6372000       1.1051600      11.6679300
C       -5.8216000       0.0656600      10.9739200
C       -4.5682100       0.3960700      10.4315300
C       -3.7069400      -0.5981800       9.9556000
C       -4.0972900      -1.9392100       9.9870700
C       -5.3621500      -2.2781200      10.4832200
C       -6.2127800      -1.2858500      10.9727800
H       -8.6085500       3.7486400      11.2981800
H       -7.5103700       3.4434500      12.6695000
H       -9.2324100       3.7731000      12.9664500
H      -10.5009300       0.3874500      12.0383800
H      -10.7709200       1.9263800      11.1721400
H      -10.8859800       1.8811400      12.9387400
H       -8.3948100       0.0726400      11.3100600
H       -6.2953100       2.1528200      11.4092600
H       -4.2527900       1.4407500      10.3816600
H       -2.7146700      -0.3283400       9.5829800
H       -3.4136900      -2.7294400       9.6480500
H       -5.6778000      -3.3218100      10.5266700
H       -7.1896700      -1.5731300      11.3701300
