60
dipolar_001628 TS complex (tags stripped)
C       -8.8902900       2.5375500      15.8410800
C       -8.3996400       1.1269900      15.4592200
C       -9.6370500       0.2110200      15.3051900
C       -7.5809700       0.5146000      16.6342300
C       -6.4368600       1.3118500      17.2676600
C       -5.2769500       1.7112000      16.3484100
C       -4.7496600       0.5717900      15.4582800
C       -5.0423100       0.7610600      13.9474100
C       -4.1196000       1.8404700      13.3787700
C       -2.8094700       1.5130700      12.9910600
C       -1.9447900       2.4802700      12.4723600
C       -2.3757100       3.8047700      12.3307200
C       -3.6721200       4.1478100      12.7243900
C       -4.5307500       3.1738900      13.2457400
C       -6.5001000       1.0095600      13.5862900
C       -7.6630500       1.1828100      14.1167500
C       -8.8213900       1.7708600      12.3129800
C       -8.5254800       3.2612900      12.3268400
C      -10.2965700       1.4711200      12.1290300
N       -8.0186200       1.0118000      11.4771200
C       -6.6372000       1.1051600      11.6679300
C       -5.8216000       0.0656600      10.9739200
C       -4.5682100       0.3960700      10.4315300
C       -3.7069400      -0.5981800       9.9556000
C       -4.0972900      -1.9392100       9.9870700
C       -5.3621500      -2.2781200      10.4832200
C       -6.2127800      -1.2858500      10.9727800
H       -9.4412400       2.5360900      16.8131400
H       -9.5897000       2.9190200      15.0797100
H       -8.0625000       3.2444800      15.9301800
H       -9.3384400      -0.8214700      15.0649500
H      -10.2467000       0.1661500      16.2385400
H      -10.2971800       0.5682100      14.5053000
H       -7.2451500      -0.4774000      16.3564800
H       -8.3127900       0.3212600      17.5030600
H       -6.8213000       2.2238300      17.7591000
H       -6.0349900       0.6921300      18.1066100
H       -4.4593900       2.0921800      17.0095700
H       -5.5657400       2.5452400      15.7296700
H       -5.1261900      -0.4016600      15.7908100
H       -3.6166600       0.4823000      15.5970200
H       -4.7186100      -0.1795100      13.4558800
H       -2.4586800       0.4810400      13.0763100
H       -0.9280400       2.2078600      12.1613000
H       -1.7093800       4.5687200      11.9136400
H       -4.0270300       5.1766300      12.6187500
H       -5.5442800       3.4409800      13.5377200
H       -8.6085500       3.7486400      11.2981800
H       -7.5103700       3.4434500      12.6695000
H       -9.2324100       3.7731000      12.9664500
H      -10.5009300       0.3874500      12.0383800
H      -10.7709200       1.9263800      11.1721400
H      -10.8859800       1.8811400      12.9387400
H       -8.3948100       0.0726400      11.3100600
H       -6.2953100       2.1528200      11.4092600
H       -4.2527900       1.4407500      10.3816600
H       -2.7146700      -0.3283400       9.5829800
H       -3.4136900      -2.7294400       9.6480500
H       -5.6778000      -3.3218100      10.5266700
H       -7.1896700      -1.5731300      11.3701300
