25
dipolar_002132 reactant_2 (FRAG2 relaxed, reordered to d) type=dipole
C        0.9759700      -0.1927300      -0.1921300
C        1.1581100      -1.4022300      -0.9036100
N        1.4315000      -2.3336000      -1.5486600
C        2.1502300       0.6646400       0.1023200
O       -1.1095100      -2.2211100       0.0295600
O        3.2934000       0.1009800      -0.2644200
C        4.4961700       0.8475900      -0.0127500
N       -0.1838800       0.3628800       0.1493700
C       -1.4903800       0.0682600       0.1447200
C       -2.2856400       1.2566200       0.5650000
C       -1.9390800      -1.3195600      -0.0784500
O       -1.6700000       2.2917500       0.8294100
C       -3.7779800       1.2085700       0.6816400
C       -3.3689900      -1.6389600      -0.4133000
O        2.0439300       1.7583500       0.6288200
H        4.6046600       1.0406000       1.0639200
H        5.3180600       0.2196400      -0.3736900
H        4.4726900       1.8004700      -0.5601000
H       -0.0528100       1.3393600       0.5009800
H       -3.4053000      -2.6675300      -0.7949100
H       -3.9958400      -1.5828400       0.4900100
H       -3.7822400      -0.9441400      -1.1567700
H       -4.1281500       2.1771700       1.0589800
H       -4.2379800       1.0110100      -0.2979600
H       -4.0953400       0.4080200       1.3653100
