9
dipolar_000245 reactant_1 (FRAG1 relaxed, reordered to d) type=dipolarophile
C       -1.6711300       0.5669200      -0.2090800
C       -2.7185300      -0.4422600       0.1608900
O       -1.9299100       1.6888300      -0.6197700
C       -0.2877500       0.1392900      -0.0525800
C        0.8628400      -0.2274200       0.0832400
Cl       2.4161700      -0.7145200       0.2637200
H       -3.7195300      -0.0193700       0.0036000
H       -2.5873200      -1.3520200      -0.4477600
H       -2.5899500      -0.7387800       1.2149000
