31
dipolar_000245 TS complex (tags stripped)
C       -3.9305900      -0.1542300       1.3574800
C       -3.3521200      -0.8564400       0.1380400
O       -4.1059500      -1.2540700      -0.7717000
C       -1.9398500      -1.0099300       0.1090600
C       -0.6478200      -1.0373000       0.0882700
Cl       0.4762000      -2.2729700       0.5792300
C        0.2363900       0.4352500      -0.6404400
C        0.3829200      -0.0736200      -1.9933900
N        0.4986800      -0.5392100      -3.0557500
C        1.5472400       0.7347700       0.0375700
C        1.6102900       0.7514300       1.4418000
C        2.8269800       0.9288800       2.0974100
C        4.0084100       1.0756200       1.3615300
C        3.9601100       1.0613300      -0.0343200
C        2.7368800       0.8966400      -0.6944000
N       -0.8202700       1.3909100      -0.5380000
C       -0.8329200       2.3769900       0.5537400
C       -1.9717700       1.0611900      -1.0924800
H       -4.1243700      -0.8610900       2.1458900
H       -4.8941100       0.3464900       1.0771300
H       -3.2366400       0.6271600       1.7354800
H        0.6954400       0.6258400       1.9988400
H        2.8370900       0.9190100       3.1847400
H        4.9651600       1.1655400       1.9010900
H        4.9061100       1.1468400      -0.5960200
H        2.7517800       0.9074700      -1.7883400
H       -1.0330200       1.8611900       1.5146100
H        0.1059900       2.9084500       0.6073200
H       -1.6591600       3.0892100       0.3723900
H       -1.9965500       0.4333800      -1.9692200
H       -2.8358000       1.7520300      -0.9165300
