20
dipolar_000797 reactant_1 (FRAG1 relaxed, reordered to d) type=dipole
C        1.7334700      -0.2149100       0.2040000
N        2.8770800       0.1527500      -0.3902300
C        0.4729700       0.2871200      -0.4287100
O        1.6453800      -0.9229100       1.2128300
C       -2.7586800      -0.4111700       0.7283000
C       -4.1909000      -0.1263200       0.4059300
N       -0.6374000      -0.0958000       0.1682900
N       -1.8554100       0.1888700      -0.1638400
N        0.4204400       1.7959000      -2.5208400
C        0.4188800       1.1146700      -1.5765200
C        4.1867700      -0.2416900       0.0912100
O       -2.3908100      -1.0989900       1.6771600
H        2.8328000       0.7349200      -1.2224700
H        4.7936100       0.6449200       0.3300700
H        4.0666900      -0.8472000       0.9964400
H       -0.4915000      -0.7019500       1.0089200
H       -4.8503800      -0.6280900       1.1241300
H       -4.4155900      -0.4660000      -0.6176600
H       -4.3652500       0.9614100       0.4286300
H        4.7179900      -0.8343200      -0.6693000
