19
dipolar_000797 reactant_2 @ TS geom
C       -0.9840700      -0.1284200       0.0816400
C       -1.6404000       1.0541600       0.7198800
O       -2.7506500       1.4463800       0.4004100
O       -0.8700100       1.6737900       1.6096800
C       -1.3411400       2.9389300       2.1137300
C       -1.8882200      -1.1560800      -0.6571800
C       -2.7293500      -1.8994000       0.3875200
C       -1.8593000      -2.6892300       1.0323400
C       -0.5017300      -2.4249700       0.3762800
O       -0.8938900      -2.1449600      -0.9850900
C        0.0574300      -0.9967900       0.7592600
H       -0.5802100       3.2999900       2.8196100
H       -1.4501700       3.6659400       1.2857000
H       -2.3077200       2.8286200       2.6224800
H       -2.3952100      -0.7648300      -1.5246800
H       -3.8268300      -1.8083000       0.5234100
H       -2.0675500      -3.4316600       1.8378300
H        0.2383300      -3.2186400       0.4497800
H        0.1838300      -0.8386100       1.9086500
