20
dipolar_000797 reactant_1 @ TS geom
C        2.2787000       2.6584900       1.7496700
N        1.9697400       1.6668400       0.7311500
C        2.2186600       0.3733700       0.9555900
O        2.9036800      -0.0526700       1.8887600
C        1.4853500      -0.6702900       0.0458600
C        2.3682500      -1.8521000      -0.0661100
N        2.9764700      -2.8385400      -0.1550900
N        1.2210100      -0.2070200      -1.3100900
N        0.1771400       0.6820200      -1.2109600
C       -0.4392800       0.8526000      -2.4948900
C       -1.4411200       1.9570500      -2.5590100
O       -0.1280600       0.1516300      -3.4436300
H        1.7849700       2.4032100       2.7137900
H        1.9123400       3.6389100       1.4250500
H        3.3558900       2.7170100       1.9324500
H        1.2507700       1.8900900       0.0354000
H        1.0426800      -0.9498100      -2.0047000
H       -1.7880700       2.0761700      -3.5922000
H       -2.2615800       1.7108600      -1.8990000
H       -0.9841400       2.8972400      -2.1984400
