19
dipolar_000797 reactant_2 (FRAG2 relaxed, reordered to d) type=dipolarophile
C        0.0228800      -0.4075900      -0.0291300
C        1.4576100      -0.3598200       0.2584800
O        2.0914200      -1.2374400       0.8202100
O        2.0109100       0.7866000      -0.1704300
C        3.4144100       0.9523300       0.0672800
C       -0.8679400      -1.3158400       0.3994500
C       -2.2289200      -0.7985900      -0.1050300
C       -0.8212000       0.6510900      -0.7816000
C       -1.6708400       1.3881200       0.2791800
O       -1.8212300      -0.2116300      -1.3570800
C       -2.5500000       0.4787400       0.7084900
H        3.9874100       0.1608800      -0.4376700
H        3.6295000       0.9241300       1.1455900
H        3.6783300       1.9328600      -0.3456900
H       -0.7046600      -2.1925200       1.0251700
H       -3.0295200      -1.5351000      -0.2296800
H       -0.3060000       1.2545800      -1.5346900
H       -1.5057800       2.4121700       0.6120700
H       -3.3020400       0.5469400       1.4936500
