39
dipolar_000797 TS complex (tags stripped)
C        2.2787000       2.6584900       1.7496700
N        1.9697400       1.6668400       0.7311500
C        2.2186600       0.3733700       0.9555900
O        2.9036800      -0.0526700       1.8887600
C        1.4853500      -0.6702900       0.0458600
C        2.3682500      -1.8521000      -0.0661100
N        2.9764700      -2.8385400      -0.1550900
N        1.2210100      -0.2070200      -1.3100900
N        0.1771400       0.6820200      -1.2109600
C       -0.4392800       0.8526000      -2.4948900
C       -1.4411200       1.9570500      -2.5590100
O       -0.1280600       0.1516300      -3.4436300
C       -0.9840700      -0.1284200       0.0816400
C       -1.6404000       1.0541600       0.7198800
O       -2.7506500       1.4463800       0.4004100
O       -0.8700100       1.6737900       1.6096800
C       -1.3411400       2.9389300       2.1137300
C       -1.8882200      -1.1560800      -0.6571800
C       -2.7293500      -1.8994000       0.3875200
C       -1.8593000      -2.6892300       1.0323400
C       -0.5017300      -2.4249700       0.3762800
O       -0.8938900      -2.1449600      -0.9850900
C        0.0574300      -0.9967900       0.7592600
H        1.7849700       2.4032100       2.7137900
H        1.9123400       3.6389100       1.4250500
H        3.3558900       2.7170100       1.9324500
H        1.2507700       1.8900900       0.0354000
H        1.0426800      -0.9498100      -2.0047000
H       -1.7880700       2.0761700      -3.5922000
H       -2.2615800       1.7108600      -1.8990000
H       -0.9841400       2.8972400      -2.1984400
H       -0.5802100       3.2999900       2.8196100
H       -1.4501700       3.6659400       1.2857000
H       -2.3077200       2.8286200       2.6224800
H       -2.3952100      -0.7648300      -1.5246800
H       -3.8268300      -1.8083000       0.5234100
H       -2.0675500      -3.4316600       1.8378300
H        0.2383300      -3.2186400       0.4497800
H        0.1838300      -0.8386100       1.9086500
