36
dipolar_002468 reactant_1 @ TS geom
C        3.3499100      -3.2035700       1.5862700
O        2.2399400      -2.5825500       0.9173100
C        2.3981800      -2.3066400      -0.3721400
O        3.3638500      -2.6600100      -1.0156500
C        1.3275000      -1.3457000      -0.9291200
C        1.1059200      -1.6735200      -2.4183300
O        0.1686000      -1.6433500      -0.1610300
C       -0.9146600      -0.7973500      -0.1427400
C       -1.6924000      -0.5325900      -1.3868500
C       -2.0321000      -1.5640300      -2.2856800
C       -2.7944000      -1.2894600      -3.4251500
C       -3.2567700       0.0079300      -3.6711700
C       -2.9610500       1.0277800      -2.7605700
C       -2.1879100       0.7574900      -1.6328900
C       -1.6453400      -0.9116600       1.1115100
C       -2.9059700      -0.2882900       1.3047000
C       -3.5535000      -0.3386000       2.5347600
C       -2.9818800      -1.0266400       3.6141500
C       -1.7619600      -1.6859500       3.4336900
C       -1.0946400      -1.6219700       2.2122300
H        3.0688900      -3.2834300       2.6400300
H        3.5588600      -4.1848200       1.1604900
H        4.2453000      -2.5586100       1.4853800
H        2.0529000      -1.7366300      -2.9267500
H        0.4652300      -0.9196500      -2.8941900
H        0.5708400      -2.6780800      -2.6408800
H       -1.7119200      -2.5964400      -2.1053100
H       -3.0458500      -2.0906700      -4.1355500
H       -3.8480400       0.2354100      -4.5606200
H       -3.3046800       2.0453900      -2.9274600
H       -1.9277400       1.5417100      -0.9270800
H       -3.3816700       0.2296800       0.4800600
H       -4.5146800       0.1688700       2.6590500
H       -3.4974000      -1.0592500       4.5833100
H       -1.3147500      -2.2343400       4.2735400
H       -0.1506500      -2.1478300       2.0965600
