19
dipolar_000460 reactant_1 @ TS geom
C       -0.5647700      -3.1917200       0.7178700
O       -0.3668200      -1.9624900       0.0311100
C       -0.6306500      -0.8727700       0.8559900
C        0.3566200      -0.5465100       1.8213300
N        1.1928700      -0.3264100       2.6187800
C       -1.8210100      -0.2145900       0.8750100
O       -2.8714400      -0.3575900       0.0765300
C       -2.8994100      -1.2772300      -1.0299700
O       -1.9986900       0.7028700       1.8330900
C       -3.1478500       1.5517900       1.8131900
H       -0.4471500      -3.9511700       0.0523100
H        0.1552500      -3.2020000       1.5703600
H       -1.5966700      -3.1312100       1.1695700
H       -3.8402200      -1.0353600      -1.5543400
H       -2.9097400      -2.3082200      -0.6861400
H       -2.0557000      -1.1004900      -1.7236800
H       -3.1536700       2.1837300       0.9600700
H       -4.0568300       0.9184400       1.8837100
H       -3.0497600       2.1284800       2.7602400
