19
dipolar_000460 reactant_1 (FRAG1 relaxed, reordered to d) type=dipolarophile
C        0.5022700       2.3238300       0.8308600
O        1.2540200       1.2676600       0.2105200
C       -0.6214100      -0.1720300      -0.3062900
C       -2.5971900       0.8110500       0.5510600
N       -1.4466100      -2.5986300      -0.6610500
C        0.7077200       0.1014400      -0.0921200
O        1.5862900      -0.8895700      -0.2636200
C        2.8739900      -0.7872300       0.3644500
O       -1.5665200       0.8269100      -0.4362900
C       -1.0422100      -1.5134100      -0.5061500
H        1.2515200       3.0324300       1.2041600
H       -0.0873900       1.9287900       1.6703900
H       -2.1777400       0.9252600       1.5648200
H        3.4737300       0.0079500      -0.0995400
H        2.7684000      -0.5956900       1.4425700
H       -0.1536300       2.8149100       0.1027000
H       -3.1774900      -0.1266000       0.5055100
H        3.3559400      -1.7586800       0.2026800
H       -3.2630200       1.6561600       0.3300200
