17
dipolar_000460 reactant_2 @ TS geom
C        0.6099300       0.7338700      -0.9907700
C        1.9095900       0.2227400      -0.7241500
C        2.2938900      -0.9976400      -1.3321200
C        3.5929400      -1.4685500      -1.1661600
C        4.5048200      -0.7427200      -0.3890600
C        4.1182800       0.4485000       0.2449100
C        2.8270500       0.9317500       0.0880000
O        0.2237500       1.8431400      -0.5045800
N       -1.1171300       2.3752200      -0.6819300
C       -1.6787300       1.8952900      -1.7743500
N       -2.2770500       1.5740100      -2.7417300
H       -0.1230800       0.0897900      -1.5741400
H        1.5867100      -1.5781400      -1.9277700
H        3.9324700      -2.3851800      -1.6691000
H        5.5475900      -1.0806900      -0.2925800
H        4.8254600       1.0182300       0.8364000
H        2.4809800       1.8205200       0.5899400
