17
dipolar_000460 reactant_2 (FRAG2 relaxed, reordered to d) type=dipole
C        0.7046700      -0.0655800      -0.0808100
C       -0.6732700       0.2910500       0.0543900
C       -1.6813600      -0.6714700       0.2985600
C       -3.0022800      -0.2625700       0.4174400
C       -3.3329800       1.0965900       0.2955500
C       -2.3408000       2.0538400       0.0546500
C       -1.0123900       1.6576500      -0.0660200
O        1.0665500      -1.2843100       0.0130200
N        4.0917200       0.0286500      -0.5238300
C        3.2550100      -0.7793100      -0.3253800
N        2.4085900      -1.7603600      -0.1064900
H       -1.4117200      -1.7245300       0.3910300
H       -3.7859100      -0.9989300       0.6056400
H       -4.3754100       1.4089500       0.3900000
H       -2.6068900       3.1083100      -0.0385900
H       -0.2254100       2.3912300      -0.2534800
H        1.4674200       0.7019900      -0.2683400
