36
dipolar_000460 TS complex (tags stripped)
C       -0.5647700      -3.1917200       0.7178700
O       -0.3668200      -1.9624900       0.0311100
C       -0.6306500      -0.8727700       0.8559900
C        0.3566200      -0.5465100       1.8213300
N        1.1928700      -0.3264100       2.6187800
C        0.6099300       0.7338700      -0.9907700
C        1.9095900       0.2227400      -0.7241500
C        2.2938900      -0.9976400      -1.3321200
C        3.5929400      -1.4685500      -1.1661600
C        4.5048200      -0.7427200      -0.3890600
C        4.1182800       0.4485000       0.2449100
C        2.8270500       0.9317500       0.0880000
O        0.2237500       1.8431400      -0.5045800
N       -1.1171300       2.3752200      -0.6819300
C       -1.6787300       1.8952900      -1.7743500
N       -2.2770500       1.5740100      -2.7417300
C       -1.8210100      -0.2145900       0.8750100
O       -2.8714400      -0.3575900       0.0765300
C       -2.8994100      -1.2772300      -1.0299700
O       -1.9986900       0.7028700       1.8330900
C       -3.1478500       1.5517900       1.8131900
H       -0.4471500      -3.9511700       0.0523100
H        0.1552500      -3.2020000       1.5703600
H       -1.5966700      -3.1312100       1.1695700
H       -0.1230800       0.0897900      -1.5741400
H        1.5867100      -1.5781400      -1.9277700
H        3.9324700      -2.3851800      -1.6691000
H        5.5475900      -1.0806900      -0.2925800
H        4.8254600       1.0182300       0.8364000
H        2.4809800       1.8205200       0.5899400
H       -3.8402200      -1.0353600      -1.5543400
H       -2.9097400      -2.3082200      -0.6861400
H       -2.0557000      -1.1004900      -1.7236800
H       -3.1536700       2.1837300       0.9600700
H       -4.0568300       0.9184400       1.8837100
H       -3.0497600       2.1284800       2.7602400
