27
dipolar_001556 reactant_1 (FRAG1 relaxed, reordered to d) type=dipole
C        4.7808900       0.1075300      -0.3270700
O        2.2571500      -0.5516100      -0.7914400
C        2.4630400       0.5497100      -0.2865400
O        3.7075700       0.9939800      -0.0044600
N        0.2708600       1.2182600      -0.0750600
N        1.5633600       1.5331700       0.0054400
C       -0.5473800       2.3112600      -0.6295200
C       -0.2835000       0.0896500       0.3595100
C       -1.6669600      -0.3285400       0.0780100
N        1.0418700      -1.4511300       1.9624000
C       -2.4321400      -0.9165400       1.1040100
C       -3.7346800      -1.3418700       0.8502300
C       -4.2824900      -1.2024700      -0.4295300
C       -3.5192300      -0.6414300      -1.4588000
C       -2.2171900      -0.2088900      -1.2127500
C        0.4896500      -0.7533500       1.2129100
H        4.6640400      -0.8557800       0.1915900
H        4.8320600      -0.0715400      -1.4118500
H        5.6976900       0.6061300       0.0108400
H       -0.4640100       2.3033200      -1.7242400
H       -0.1156800       3.2410500      -0.2427100
H       -1.5911500       2.2116400      -0.3194400
H       -2.0064300      -1.0277800       2.1032800
H       -4.3248200      -1.7849300       1.6550800
H       -5.3022100      -1.5402500      -0.6273300
H       -3.9362300      -0.5490600      -2.4638100
H       -1.6195200       0.1993300      -2.0282800
