18
dipolar_001556 reactant_2 (FRAG2 relaxed, reordered to d) type=dipolarophile
C       -0.2018400       0.6587000      -0.0382500
Cl       0.1013900       2.1237600       0.8090100
C       -1.5837600       0.1533600      -0.3759500
C       -1.8793100      -0.9612900       0.6845600
C       -0.8715000      -2.0840200       0.3070600
C       -0.1123300      -1.4758700      -0.9129900
C       -1.2506700      -0.7060200      -1.6147000
C        0.6998900      -0.3020400      -0.3562500
C        2.0785800      -0.3151100      -0.0493400
N        3.2203200      -0.3437300       0.1851400
H       -2.3546700       0.9262100      -0.4679900
H       -2.9202500      -1.2970100       0.5739000
H       -1.7496100      -0.5869800       1.7094900
H       -1.3917500      -3.0029700       0.0002900
H       -0.1844100      -2.3394000       1.1254700
H        0.4643800      -2.1920500      -1.5091200
H       -2.0847800      -1.3561800      -1.9164000
H       -0.9062600      -0.1105200      -2.4720200
