27
dipolar_001556 reactant_1 @ TS geom
C       -3.8301000       1.1587100       2.5287200
O       -2.6829200       0.7033200       1.7983300
C       -2.1106400       1.5909500       0.9676300
O       -2.5355100       2.7405900       0.8061100
N       -0.9661100       1.0762000       0.4542600
N       -0.5225400       1.3780300      -0.7366700
C       -1.4413100       1.6558600      -1.8656200
C        0.7872400       1.2309100      -0.9882200
C        1.2008600       1.1358100      -2.3428300
N        1.6097200       1.0672200      -3.4345400
C        1.8318900       1.2550900       0.0445100
C        3.0790400       0.6364300      -0.1696300
C        4.1063600       0.7904400       0.7632500
C        3.9099100       1.5718300       1.9054500
C        2.6776400       2.2052300       2.1107600
C        1.6450900       2.0461900       1.1958100
H       -3.5520100       2.0078700       3.1722800
H       -4.1814400       0.3210500       3.1524400
H       -4.6284900       1.4682700       1.8397900
H       -1.0193700       2.4417500      -2.4945400
H       -2.4067300       1.9440100      -1.4812300
H       -1.5390500       0.7217000      -2.4664100
H        3.2578600       0.0154900      -1.0535100
H        5.0784000       0.3116700       0.6010000
H        4.7075800       1.7108900       2.6350900
H        2.5068400       2.8388000       2.9752200
H        0.6843100       2.5341200       1.3397900
