30
dipolar_001958 reactant_2 (FRAG2 relaxed, reordered to d) type=dipolarophile
C       -0.3674200      -0.5769100       1.6174300
C        0.3716100      -0.1967700       0.7330400
C        1.0966000      -0.1020800      -0.5258400
C        1.3133500       1.3008400      -1.0613600
C        0.3743800       2.3188300      -0.8432700
C        0.5619800       3.5880400      -1.3975900
C        1.6902500       3.8537200      -2.1803800
C        2.6299600       2.8423500      -2.4041200
C        2.4411300       1.5741200      -1.8476600
C        0.2814900      -0.9791000      -1.5309700
C       -0.1314000      -2.3788300      -1.0313000
C       -1.4827900      -2.5228900      -0.2741500
C       -1.4541600      -2.7377800       1.2512700
C       -1.4250100      -1.4677400       2.0936900
F       -2.6427400      -0.8254500       2.0118600
F       -1.2802900      -1.7946200       3.4190500
H        2.0811700      -0.5785100      -0.3841700
H       -0.5082100       2.1163700      -0.2313000
H       -0.1758200       4.3734000      -1.2159200
H        1.8381100       4.8465300      -2.6119600
H        3.5161200       3.0422300      -3.0114700
H        0.9055500      -1.0774000      -2.4329200
H       -0.6159600      -0.4112300      -1.8264800
H       -2.1393500      -1.6674300      -0.5062400
H       -0.2011000      -3.0126800      -1.9287300
H       -1.9954400      -3.4034700      -0.6891900
H       -0.5769000      -3.3366700       1.5413500
H        0.6853700      -2.8132300      -0.4292200
H       -2.3518300      -3.2889400       1.5750100
H        3.1779400       0.7852200      -2.0211800
