22
dipolar_001958 reactant_1 @ TS geom
C       -8.4201900     -12.9109600      10.6083700
O       -9.8298300     -13.0981000      10.4135200
C      -10.2235200     -13.4409700       9.1863600
O       -9.4613800     -13.6082900       8.2352700
N      -11.6048500     -13.5499600       9.1626000
N      -12.0286000     -14.0708400       8.0588400
N      -13.2203000     -14.3097300       7.6801200
C      -14.3311200     -13.9530700       8.4867300
C      -14.3511400     -12.8881700       9.4115200
C      -15.5646100     -12.4359300       9.9254600
C      -16.7686700     -13.0543300       9.5757100
C      -16.7549900     -14.1327700       8.6817900
C      -15.5533600     -14.5701000       8.1300400
H       -8.0744900     -12.0632200       9.9956900
H       -7.8589200     -13.8142100      10.3413700
H       -8.2767600     -12.6812000      11.6753000
H      -11.3265300     -14.3528100       7.3506800
H      -13.4187900     -12.4217400       9.6909100
H      -15.5541000     -11.5848900      10.6039000
H      -17.7096200     -12.6855500       9.9990500
H      -17.7046800     -14.6093600       8.4006900
H      -15.5522400     -15.4071800       7.4301800
