30
dipolar_001958 reactant_2 @ TS geom
C      -12.8409200     -16.2644600       9.4763100
C      -12.0940400     -15.7805400      10.2644700
C      -11.3613900     -15.6808600      11.5153600
C       -9.8735300     -15.9472100      11.3961000
C       -9.2946000     -16.5141800      10.2535900
C       -7.9225600     -16.7877700      10.2164800
C       -7.1177900     -16.5025300      11.3227100
C       -7.6923700     -15.9369700      12.4668000
C       -9.0588400     -15.6609400      12.4990900
C      -12.0687500     -16.8208300      12.3129300
C      -13.5364800     -16.5714300      12.7006900
C      -14.5972500     -16.1661700      11.6576800
C      -14.9099600     -17.1112100      10.4876800
C      -13.8257700     -17.2971400       9.4176800
F      -13.1282100     -18.4919100       9.6469400
F      -14.4201700     -17.5026700       8.1833500
H      -11.5204000     -14.7240200      12.0107400
H       -9.9148900     -16.7426600       9.3792100
H       -7.4792200     -17.2276500       9.3177800
H       -6.0486800     -16.7131500      11.2973300
H       -7.0805800     -15.7015400      13.3346400
H       -9.5145000     -15.2086200      13.3823000
H      -11.9966700     -17.7364500      11.6747100
H      -11.4926800     -16.9942800      13.1924700
H      -13.5341500     -15.7842900      13.4707000
H      -13.8793000     -17.4892500      13.1993500
H      -15.5456400     -16.0519700      12.2139400
H      -14.3798000     -15.1561800      11.2646400
H      -15.1415600     -18.1140700      10.8375900
H      -15.7853400     -16.7136600       9.9615000
