52
dipolar_001958 TS complex (tags stripped)
C       -8.4201900     -12.9109600      10.6083700
O       -9.8298300     -13.0981000      10.4135200
C      -10.2235200     -13.4409700       9.1863600
O       -9.4613800     -13.6082900       8.2352700
N      -11.6048500     -13.5499600       9.1626000
N      -12.0286000     -14.0708400       8.0588400
N      -13.2203000     -14.3097300       7.6801200
C      -14.3311200     -13.9530700       8.4867300
C      -14.3511400     -12.8881700       9.4115200
C      -15.5646100     -12.4359300       9.9254600
C      -16.7686700     -13.0543300       9.5757100
C      -16.7549900     -14.1327700       8.6817900
C      -15.5533600     -14.5701000       8.1300400
C      -12.8409200     -16.2644600       9.4763100
C      -12.0940400     -15.7805400      10.2644700
C      -11.3613900     -15.6808600      11.5153600
C       -9.8735300     -15.9472100      11.3961000
C       -9.2946000     -16.5141800      10.2535900
C       -7.9225600     -16.7877700      10.2164800
C       -7.1177900     -16.5025300      11.3227100
C       -7.6923700     -15.9369700      12.4668000
C       -9.0588400     -15.6609400      12.4990900
C      -12.0687500     -16.8208300      12.3129300
C      -13.5364800     -16.5714300      12.7006900
C      -14.5972500     -16.1661700      11.6576800
C      -14.9099600     -17.1112100      10.4876800
C      -13.8257700     -17.2971400       9.4176800
F      -13.1282100     -18.4919100       9.6469400
F      -14.4201700     -17.5026700       8.1833500
H       -8.0744900     -12.0632200       9.9956900
H       -7.8589200     -13.8142100      10.3413700
H       -8.2767600     -12.6812000      11.6753000
H      -11.3265300     -14.3528100       7.3506800
H      -13.4187900     -12.4217400       9.6909100
H      -15.5541000     -11.5848900      10.6039000
H      -17.7096200     -12.6855500       9.9990500
H      -17.7046800     -14.6093600       8.4006900
H      -15.5522400     -15.4071800       7.4301800
H      -11.5204000     -14.7240200      12.0107400
H       -9.9148900     -16.7426600       9.3792100
H       -7.4792200     -17.2276500       9.3177800
H       -6.0486800     -16.7131500      11.2973300
H       -7.0805800     -15.7015400      13.3346400
H       -9.5145000     -15.2086200      13.3823000
H      -11.9966700     -17.7364500      11.6747100
H      -11.4926800     -16.9942800      13.1924700
H      -13.5341500     -15.7842900      13.4707000
H      -13.8793000     -17.4892500      13.1993500
H      -15.5456400     -16.0519700      12.2139400
H      -14.3798000     -15.1561800      11.2646400
H      -15.1415600     -18.1140700      10.8375900
H      -15.7853400     -16.7136600       9.9615000
