32
dipolar_002345 reactant_2 (FRAG2 relaxed, reordered to d) type=dipolarophile
C        1.9406800       0.7711900       0.8484500
C       -1.1568900       1.9640400      -0.1589900
C        3.3348500       0.8124000       0.8025000
O       -0.1301500       2.6376900      -0.0575600
C        1.2303000      -0.2798900       0.2345500
C        1.9698300      -1.2977200      -0.4073200
C       -0.2319200      -0.3910400       0.3008400
C       -0.9140100      -1.7528500       0.3668500
C        3.3620200      -1.2423200      -0.4693100
C       -1.2376200       0.5393800       0.2007400
C       -2.5573200      -0.2342800       0.2167500
C       -2.1889700      -1.3984400       1.1525800
C       -2.6558600      -0.9754800      -1.1534600
C       -1.5110400      -2.0201100      -1.0550800
C       -2.4259600       2.6017800      -0.6766900
C        4.0516800      -0.1864000       0.1360400
H        1.3908300       1.5499400       1.3713200
H        3.8658200       1.6312900       1.2939100
H       -2.2096600       3.6214700      -1.0212300
H        5.1428400      -0.1471500       0.0956800
H        1.4474800      -2.1315600      -0.8786400
H        3.9119700      -2.0314100      -0.9875600
H       -0.7537400      -1.9075200      -1.8430700
H       -0.2856700      -2.5642000       0.7527700
H       -1.9841200      -1.0754000       2.1839900
H       -2.9328900      -2.2098300       1.1560700
H       -1.8965300      -3.0492700      -1.1022700
H       -3.6378600      -1.4618600      -1.2526300
H       -3.4445700       0.3536000       0.4773800
H       -2.5358400      -0.2840100      -1.9992100
H       -3.1772900       2.6423600       0.1291300
H       -2.8670300       2.0122600      -1.4950900
