32
dipolar_002345 reactant_2 @ TS geom
C       -1.1192100      -0.9288200       0.5167800
C       -1.3720500      -2.1261900      -0.4327800
C       -2.5589900      -3.0100300      -0.1640500
O       -0.5237900      -2.4762700      -1.2371000
C       -2.3266500      -0.5859900       1.4707700
C       -3.5135200       0.1014600       0.7317000
C       -2.9638900       1.5214400       0.4201600
C       -1.4954100       1.4303100       0.9381900
C       -1.7266400       0.6072300       2.2162800
C       -0.6908400       0.4765400       0.0154100
C       -0.4338100       0.9693600      -1.3572200
C       -0.4300100       2.3738500      -1.5854800
C       -0.0513900       2.9238700      -2.8091700
C        0.3347200       2.1015800      -3.8728100
C        0.3356300       0.7188400      -3.6778500
C       -0.0324100       0.1642700      -2.4506200
H       -3.5138500      -2.4923900      -0.2345500
H       -2.4800100      -3.3946900       0.8796100
H       -2.5229400      -3.8662200      -0.8492300
H       -2.6240900      -1.4524100       2.0566200
H       -3.8894700      -0.4111700      -0.1470700
H       -4.4062600       0.1658000       1.4484300
H       -3.0624200       1.7944300      -0.6312900
H       -3.5217900       2.3168600       1.0042000
H       -1.0231800       2.3987300       1.0623700
H       -0.8065500       0.3408300       2.7364700
H       -2.4221300       1.0763500       2.9049700
H       -0.7144100       3.0561700      -0.7874400
H       -0.0519000       4.0133200      -2.9325500
H        0.6371900       2.5336600      -4.8312900
H        0.6502900       0.0543700      -4.4888200
H        0.0065500      -0.9086100      -2.3281700
