28
dipolar_001914 reactant_1 (FRAG1 relaxed, reordered to d) type=dipole
C        1.0180700      -2.2198200      -1.6097000
N        0.3393100      -1.2594400      -0.7067900
C        1.0683300      -0.2559300      -0.1198200
O        2.6929600      -0.0391000      -1.8637700
C        0.6007300       0.3408300       1.0692800
C        2.3492400       0.2167100      -0.7013100
N        0.3198700       0.8638400       2.0758800
N       -0.8990200      -1.5473600      -0.5227600
C       -1.7845300      -0.6168100       0.0433700
N        3.1115700       0.9824500       0.1115400
C       -1.8823300       0.7136600      -0.4143100
C       -2.8793600       1.5456200       0.0891800
C       -3.7761900       1.0788500       1.0581300
C       -3.6847300      -0.2427600       1.5057100
C       -2.7069500      -1.0935600       0.9898200
C        4.3506900       1.5690300      -0.3567300
H        1.0427300      -1.7998900      -2.6208300
H        2.0360700      -2.4110800      -1.2600000
H        0.4106600      -3.1294400      -1.5911500
H       -1.1864900       1.0885300      -1.1669000
H       -2.6360300      -2.1320200       1.3182400
H        2.8389900       1.1254000       1.0780300
H        4.7335300       2.2480100       0.4148900
H        4.1900700       2.1394600      -1.2844100
H       -2.9551900       2.5719500      -0.2773600
H       -4.5470100       1.7422400       1.4562500
H       -4.3853700      -0.6184400       2.2548900
H        5.1147400       0.8007500      -0.5612800
