28
dipolar_001914 reactant_1 @ TS geom
C       -0.7124500      -2.9522700       2.9448700
N       -0.0638100      -2.2796100       1.8369200
C        1.2267000      -1.9165400       1.9308100
O        1.9626800      -2.2481600       2.8728200
C        1.8522000      -1.1612900       0.8052500
C        3.2404400      -0.9459800       0.9637200
N        4.3823900      -0.7572700       1.1201300
N        1.2950600      -0.9985400      -0.4357900
C        2.1823000      -1.0201600      -1.6245700
N        0.0372600      -0.8751400      -0.5052700
C       -0.6914500      -1.0440200      -1.6769300
C       -0.6492000      -2.3296000      -2.2286100
C       -1.4759100      -2.6530600      -3.2949500
C       -2.3570300      -1.7000500      -3.8171500
C       -2.4102400      -0.4192200      -3.2575700
C       -1.5880400      -0.0786000      -2.1800900
H       -0.7893900      -2.2961000       3.8231700
H       -0.1578000      -3.8572300       3.2354600
H       -1.7248500      -3.2489800       2.6308500
H       -0.6517800      -1.7301400       1.2156700
H        2.9876300      -0.2709800      -1.4788100
H        1.5919000      -0.7435700      -2.4963200
H        2.6031400      -2.0025800      -1.7150400
H        0.0216900      -3.0204200      -1.7331200
H       -1.3960300      -3.6424100      -3.6693200
H       -2.9805900      -1.9772400      -4.6521000
H       -3.1058700       0.3208600      -3.6828000
H       -1.6689100       0.9591500      -1.7888100
