24
dipolar_001914 reactant_2 (FRAG2 relaxed, reordered to d) type=dipolarophile
C        0.1220800      -0.0720300      -0.3238900
C        1.5318600       0.1235600       0.0593700
O        2.1274500      -0.5574200       0.8755500
O        2.0873700       1.1466100      -0.5989400
C        3.4609200       1.4351800      -0.3016600
C       -1.5264900       1.7244000      -0.5300600
C       -2.5379500       0.8018300       0.2044600
C       -2.1359400      -0.6268100      -0.2896000
C       -1.7298700      -0.3297900      -1.7480300
C       -0.6617700       0.7125300      -1.3546700
C       -0.7613700      -0.8827300       0.3163800
C       -0.5300100      -1.6996900       1.4518700
N       -0.4088700      -2.3976100       2.3766800
H        3.7297100       2.2974800      -0.9222400
H        4.0956600       0.5724100      -0.5505600
H        3.5796100       1.6797300       0.7638700
H       -0.9060400       2.3205500       0.1532000
H       -2.4843000       0.8827500       1.2988600
H       -2.0358300       2.4146100      -1.2177800
H       -3.5727100       1.0122500      -0.1018300
H       -2.8809200      -1.4084000      -0.1045000
H       -2.5517700       0.0974300      -2.3407000
H       -0.0633300       1.1636300      -2.1526600
H       -1.3090200      -1.2044700      -2.2647000
