24
dipolar_001914 reactant_2 @ TS geom
C       -0.3197200       1.2741500       0.6652700
C       -1.6948000       0.7934500       0.9224000
O       -2.0424800      -0.2485200       1.4496200
O       -2.5604200       1.7677200       0.5964500
C       -3.9273600       1.5601600       0.9306000
C        0.0034700       2.4266500      -0.2729200
C        1.2887100       2.2020100      -1.1196200
C        2.4139500       2.1715100      -0.0505400
C        1.6373000       2.3540600       1.2796500
C        0.5535300       3.3790400       0.8279500
C        0.6725400       1.1863100       1.5599700
C        0.5239500       0.6578700       2.8724100
N        0.3651000       0.3287500       3.9806200
H       -4.4191400       2.4867400       0.6311300
H       -4.0199200       1.4047900       2.0163800
H       -4.3084600       0.7041900       0.3876300
H       -0.8510100       2.7145300      -0.8770600
H        1.2776800       1.3274000      -1.7869000
H        1.4057100       3.0833600      -1.7876400
H        3.0851200       3.0455700      -0.1527500
H        3.0546600       1.2881100      -0.0851100
H        2.2376200       2.5859900       2.1376900
H       -0.2413900       3.4700700       1.6113400
H        0.8977000       4.2642900       0.4628600
