25
dipolar_002247 reactant_2 (FRAG2 relaxed, reordered to d) type=dipole
C       -0.6536400       2.0348100       0.8848500
O        2.6923600       0.4952000      -0.3177600
C        0.4117100       0.0467600      -0.0530100
O        1.9465500      -1.5427000      -0.9430900
C       -0.7836400      -0.8019300      -0.1740700
C       -1.6751700      -0.9589900       0.9052100
C       -2.7949200      -1.7833200       0.7868800
C       -3.0455100      -2.4642300      -0.4087500
C        1.7238700      -0.4318600      -0.4850100
C       -1.0430800      -1.4966200      -1.3713500
C        4.0257300       0.1162900      -0.6769400
N        0.3699000       1.2843400       0.4603400
C       -2.1644300      -2.3189100      -1.4852600
C       -0.4179900       3.3299800       1.3664900
N       -0.2472200       4.4135600       1.7759500
H       -1.6687400       1.6449600       0.8389100
H       -0.3617500      -1.3847700      -2.2154600
H       -1.4819200      -0.4503200       1.8516600
H       -3.4720100      -1.8986900       1.6364000
H       -3.9235900      -3.1076700      -0.5003700
H        1.2966600       1.7253000       0.5104500
H        4.3557700      -0.7480000      -0.0822500
H        4.6558400       0.9867400      -0.4606000
H        4.0801100      -0.1345000      -1.7463600
H       -2.3537800      -2.8463800      -2.4230900
