14
dipolar_002247 reactant_1 (FRAG1 relaxed, reordered to d) type=dipolarophile
C       -0.0616000       0.0155400       0.0513500
Br       1.3563000       0.1979200       1.2955100
Br      -1.2026400       1.5134900      -0.1502700
C       -0.2976800      -1.1514400      -0.5934100
O        0.5078800      -2.2313000      -0.4869800
C        1.7598500      -2.2071700      -1.1945600
O       -1.4282900      -1.3206400      -1.2995500
C       -1.3729900      -2.1569400      -2.4629100
H        2.2005100      -3.2040100      -1.0681800
H        1.5992500      -2.0069100      -2.2642900
H       -1.0090300      -3.1636000      -2.2135300
H       -0.7271100      -1.7061600      -3.2331900
H       -2.4019300      -2.2191200      -2.8374900
H        2.4382800      -1.4517500      -0.7717400
