39
dipolar_002247 TS complex (tags stripped)
C        2.6612400       3.2624300       2.5670800
O        2.4534200       2.0837200       1.7774700
C        1.7470200       2.2310400       0.6559000
O        1.3628700       3.3185600       0.2497400
C        1.3896700       0.9547100      -0.0340500
C        2.2792500      -0.2440300       0.1238500
C        2.4968000      -0.7880900       1.4052700
C        3.2159100      -1.9696300       1.5706900
C        3.7505900      -2.6395200       0.4647900
C        3.5726600      -2.0973500      -0.8103600
C        2.8515300      -0.9097200      -0.9811600
N        0.9828500       1.2575700      -1.3836800
C        0.0115400       0.2649100      -1.7796600
C       -0.6509400       0.7399800      -3.0156100
N       -1.2108000       1.1181200      -3.9586100
C       -0.9411900      -0.2282300      -0.4877900
Br      -2.8988200      -0.0147600      -0.9399200
Br      -0.6736500      -2.1429900      -0.1008300
C       -0.4910400       0.6098500       0.7311100
O       -1.1697100       1.8095800       0.6992400
C       -1.2237200       2.6002800       1.8935500
O       -0.2756200       0.0872300       1.9725100
C       -1.2258000      -0.6042500       2.8045000
H        3.2299700       4.0155900       2.0066200
H        1.6920000       3.6884500       2.8722200
H        3.2237000       2.9361700       3.4487100
H        2.0745900      -0.2813500       2.2624700
H        3.3477100      -2.3710100       2.5766100
H        4.3054100      -3.5740200       0.6078300
H        4.0047300      -2.6119600      -1.6804500
H        2.7562300      -0.5102400      -1.9924500
H        0.6482300       2.2304900      -1.4207700
H        0.5509900      -0.6845200      -2.0370100
H       -1.3806400       3.6377500       1.5683500
H       -0.3147100       2.5272300       2.4940600
H       -2.0915700       2.2800400       2.5080800
H       -1.3820600      -0.0068600       3.7252800
H       -2.1430700      -0.8102600       2.3110900
H       -0.7221700      -1.5637500       3.1125700
