24
dipolar_001392 reactant_1 (FRAG1 relaxed, reordered to d) type=dipolarophile
C       -1.0904200      -0.5133600       0.8915100
N        2.4250000       0.2995300      -0.3453300
C       -2.1023000       0.6380100       0.5886200
O        1.3500400       1.0126100       1.5373000
C        0.1050100      -0.2635800      -0.0173100
C       -0.2914700      -0.5296600      -1.2807100
C       -1.7601900      -1.6867100       0.1476800
C       -1.7401000      -0.9665700      -1.2188200
C       -2.5508700       0.3294100      -0.8683700
C        1.3395400       0.4010200       0.4551800
C        3.6959200       0.9315900      -0.0637500
H       -0.8543200      -0.6453400       1.9541000
H       -2.9513800       0.5904600       1.2868900
H       -1.6285700       1.6237600       0.6988700
H        3.6260300       1.4511200       0.8990200
H        2.3371000      -0.2441900      -1.1971800
H       -1.1540500      -2.6049500       0.1579100
H       -2.7772500      -1.9075200       0.5070800
H       -2.1183500      -1.5128200      -2.0921400
H        0.2602300      -0.3266700      -2.2015700
H       -2.3335900       1.1472600      -1.5702500
H        3.9591200       1.6659900      -0.8423500
H        4.5059700       0.1872600      -0.0053700
H       -3.6295700       0.1185700      -0.9213400
