24
dipolar_001392 reactant_1 @ TS geom
C       -2.6902800       2.9857900      -1.3783500
N       -2.2825600       1.8549200      -0.5712000
C       -1.6191500       0.8050800      -1.1109700
O       -1.4613400       0.6887000      -2.3391700
C       -1.2012600      -0.2663800      -0.1674900
C       -1.7899000      -0.4879100       1.2208900
C       -3.0697800      -1.3257900       0.8903900
C       -2.4848300      -2.6787900       0.3882300
C       -0.9345200      -2.4554500       0.5113200
C       -0.8782000      -1.5933400       1.7830600
C       -0.7263600      -1.4371400      -0.5814800
H       -3.4682100       3.5562400      -0.8550900
H       -3.1099900       2.6223800      -2.3352000
H       -1.8481000       3.6514400      -1.6099300
H       -2.1693700       2.0330700       0.4230700
H       -1.9635300       0.3992000       1.8678200
H       -3.6525300      -1.4445000       1.7574900
H       -3.6544800      -0.7903500       0.1055500
H       -2.7782000      -3.4914600       0.9774700
H       -2.7122600      -2.8725600      -0.6879700
H       -0.3101700      -3.3576000       0.5092800
H        0.1337100      -1.2681300       2.0782000
H       -1.3384400      -2.0859300       2.6636000
H       -0.5197900      -1.6723700      -1.5936800
