51
dipolar_001392 TS complex (tags stripped)
C       -2.6902800       2.9857900      -1.3783500
N       -2.2825600       1.8549200      -0.5712000
C       -1.6191500       0.8050800      -1.1109700
O       -1.4613400       0.6887000      -2.3391700
C       -1.2012600      -0.2663800      -0.1674900
C       -1.7899000      -0.4879100       1.2208900
C       -3.0697800      -1.3257900       0.8903900
C       -2.4848300      -2.6787900       0.3882300
C       -0.9345200      -2.4554500       0.5113200
C       -0.8782000      -1.5933400       1.7830600
C       -0.7263600      -1.4371400      -0.5814800
C        1.9590500      -0.9538000      -0.3307900
C        1.6948800      -1.0031200      -1.7873400
C        1.9344200      -2.3658700      -2.4036000
O        1.4534600      -0.0225600      -2.4969800
N        1.8170600       0.0502200       0.5339100
C        2.5304200      -0.2181600       1.8187900
C        1.1812800       1.2624400       0.3336900
C        0.5091000       2.0180000       1.3840200
C        0.4196800       1.5714600       2.8304300
O       -0.0380700       3.0979200       1.0996900
C        1.4341500       1.9947000      -0.9252600
O        0.6733000       2.6974100      -1.5548200
O        2.7630000       1.9467600      -1.1875200
C        3.2051800       2.6455500      -2.3426000
H       -3.4682100       3.5562400      -0.8550900
H       -3.1099900       2.6223800      -2.3352000
H       -1.8481000       3.6514400      -1.6099300
H       -2.1693700       2.0330700       0.4230700
H       -1.9635300       0.3992000       1.8678200
H       -3.6525300      -1.4445000       1.7574900
H       -3.6544800      -0.7903500       0.1055500
H       -2.7782000      -3.4914600       0.9774700
H       -2.7122600      -2.8725600      -0.6879700
H       -0.3101700      -3.3576000       0.5092800
H        0.1337100      -1.2681300       2.0782000
H       -1.3384400      -2.0859300       2.6636000
H       -0.5197900      -1.6723700      -1.5936800
H        2.1876900      -1.9226300       0.0911900
H        3.0376300      -2.5541600      -2.4152000
H        1.5976300      -2.3775300      -3.4638000
H        1.4760000      -3.1884700      -1.8553400
H        1.9799500      -0.8693800       2.4715600
H        3.4697600      -0.7295800       1.5033500
H        2.7844000       0.7226300       2.2503500
H        0.3372500       0.4954900       2.9892600
H        1.3298700       1.9225500       3.3499500
H       -0.4380800       2.0788000       3.2877700
H        4.2753400       2.4593700      -2.3724400
H        2.7005300       2.2573900      -3.2206100
H        3.0003400       3.7210500      -2.2269000
