16
dipolar_000900 reactant_2 @ TS geom
C        1.6695300      -0.2710500      -0.8525800
F        1.7814500       0.1844200      -2.1383000
C        2.5909900       0.2579700       0.2512600
C        3.6217900      -0.9059900       0.3873800
C        2.9178600      -1.9201200       0.8961300
C        1.4750100      -1.3628300       1.0594400
O        1.7682700       0.0078400       1.3992000
C        0.9566400      -1.2347800      -0.3936300
C        0.2250200      -2.3121400      -1.1210300
H        2.9755800       1.2949700       0.2481100
H        4.6183000      -0.8666900       0.0033700
H        3.1826000      -2.9479000       1.0430500
H        0.8241500      -1.8353400       1.8219000
H       -0.1313700      -1.9300300      -2.0897500
H       -0.5868800      -2.7567800      -0.5725000
H        0.9986800      -3.0717600      -1.3128500
