24
dipolar_000900 reactant_1 (FRAG1 relaxed, reordered to d) type=dipole
C       -1.7227400       3.7783500       0.3721300
N       -1.6497100       2.3363600       0.2657600
C       -0.4705000       1.7023000       0.1459800
O        0.6205000       2.2929300       0.1182400
C       -0.5259100       0.2181100       0.0460200
C        1.7462500      -0.7633700      -0.1533600
O        3.3448100      -2.4234100      -0.3810700
O       -1.4680900      -1.9115600      -0.0395700
C        3.1024400      -1.2283400      -0.2781800
N        0.6446400      -0.3709100      -0.0636600
C       -1.7332900      -0.6025900       0.0632000
C       -2.5938300      -2.8001900      -0.0291300
C        4.1296100      -0.1316200      -0.2655600
O       -2.8705400      -0.1559600       0.1614700
H       -1.2848500       4.2699700      -0.5116100
H       -2.7757800       4.0742000       0.4532000
H       -1.1837900       4.1449800       1.2607800
H        3.6723100       0.8641600      -0.1831600
H        4.8089700      -0.3005300       0.5854100
H        4.7215000      -0.1965200      -1.1923900
H       -2.1791400      -3.8104300      -0.1230100
H       -3.1521500      -2.7051900       0.9134700
H       -2.4925800       1.7641000       0.2785100
H       -3.2637800      -2.5848500      -0.8741200
