24
dipolar_000900 reactant_1 @ TS geom
C       -3.6157400      -2.3569900      -1.7223600
N       -3.0305500      -1.5720800      -0.6592400
C       -2.2961600      -0.4775800      -0.9251700
O       -2.1431800      -0.0108100      -2.0634900
C       -1.6745000       0.1814200       0.2546900
C       -1.6206300      -0.3410700       1.6199200
O       -2.0723500      -1.4303100       1.9542200
O       -1.0265000       0.5026800       2.4666800
C       -0.8878000       0.0710800       3.8252100
N       -0.8400400       1.1269200      -0.0483500
C       -0.0423600       1.9375600      -0.4673100
C        0.7347200       3.0383400      -0.9142900
C        0.6275400       3.3121300      -2.3822700
O        1.4361600       3.6402800      -0.1004700
H       -4.2837200      -3.1021600      -1.2758600
H       -4.2031000      -1.7070000      -2.3887500
H       -2.8557900      -2.8713900      -2.3263300
H       -2.9556400      -1.9508100       0.2886900
H       -0.2756100      -0.8339300       3.8835100
H       -0.4035200       0.8995100       4.3508400
H       -1.8819500      -0.1248700       4.2621200
H        1.0611000       4.2843800      -2.5823900
H        1.1449200       2.5184100      -2.9421600
H       -0.4399200       3.2704400      -2.6721500
