16
dipolar_000900 reactant_2 (FRAG2 relaxed, reordered to d) type=dipolarophile
C       -0.9556000       0.9175400       1.3810400
F        0.6114000      -2.0545500      -0.7256300
C        0.2791400      -0.7867100      -0.4641500
C        2.4430400       0.2596100       0.4721200
C        1.0275300       0.2018800       0.0272200
C       -1.1699100      -0.2813500      -0.5557100
O       -0.8986700       1.0881700      -0.9063100
C       -1.6773300      -0.0977900       0.8975800
C       -0.0206700       1.3312600       0.2181300
H        2.9640400      -0.6878400       0.2702000
H        2.9915900       1.0746200      -0.0299300
H        0.3689000       2.3557000       0.2233800
H       -1.8296500      -0.7854400      -1.2707000
H       -0.9493000       1.3553000       2.3787600
H       -2.4242100      -0.7229400       1.3856400
H        2.4989000       0.4599100       1.5570800
