15
dipolar_000309 reactant_1 @ TS geom
C       -0.9329700       0.1811600       3.3739800
O       -1.1193100      -0.4915400       2.1309300
C       -1.9345400       0.0966300       1.2340100
O       -2.5062300       1.1601500       1.4477000
C       -2.1115500      -0.6888800       0.0274900
C       -3.2572800      -0.4066000      -0.9094200
N       -1.2671400      -1.6227100      -0.2568700
C       -0.4276000      -2.4548600      -0.6126300
H       -0.5922500       1.2084000       3.2222200
H       -0.1799300      -0.3997800       3.9106600
H       -1.8798000       0.1879800       3.9392600
H       -3.0789300      -0.8217600      -1.9127800
H       -3.4463500       0.6685000      -0.9945500
H       -4.1489400      -0.8829500      -0.4847200
H       -0.1315000      -3.3598000      -0.7826700
