36
dipolar_002635 reactant_2 @ TS geom
C        0.9176800      -0.3795700       0.2596200
C        1.9269400       0.7865000       0.6710200
C        2.1305700       1.0530800       2.0295700
C        3.0023400       2.0560200       2.4675600
C        3.7059000       2.8324500       1.5475200
C        3.5252100       2.5856200       0.1800400
C        2.6488800       1.5771700      -0.2518900
C        1.8106300      -1.4605200      -0.4715400
C        3.1763300      -1.5950500      -0.1715100
C        3.8993200      -2.7310800      -0.5595700
C        3.2752500      -3.7574300      -1.2696200
C        1.9211900      -3.6280700      -1.5898100
C        1.2021200      -2.4969200      -1.1963200
C       -0.1137500       0.2733500      -0.7531000
F       -0.0980000      -0.2771000      -2.0079900
C       -0.4848600       1.6821700      -0.8281000
C       -0.4480400       2.5314200       0.3034300
C       -0.9706500       3.8181900       0.2417900
C       -1.5554800       4.2970800      -0.9366900
C       -1.6118400       3.4656500      -2.0591600
C       -1.0840000       2.1762800      -2.0121300
H        1.5895500       0.4815100       2.7693600
H        3.1145400       2.2219000       3.5409700
H        4.3841000       3.6223000       1.9074900
H        4.0885800       3.2092700      -0.5438300
H        2.5499500       1.4365200      -1.3275100
H        3.7005100      -0.8282400       0.4008900
H        4.9582800      -2.8179100      -0.2895500
H        3.8330500      -4.6498300      -1.5703400
H        1.4055300      -4.4197700      -2.1365000
H        0.1465800      -2.4415900      -1.4375900
H       -0.0323100       2.1733600       1.2384800
H       -0.9341800       4.4498900       1.1311000
H       -1.9679200       5.3080000      -0.9760000
H       -2.0752000       3.8225700      -2.9821400
H       -1.1380900       1.5408600      -2.8937100
