27
dipolar_001576 reactant_2 @ TS geom
C        3.7655600      -2.3931300      -0.6995000
N        2.7376300      -2.0676900       0.2702000
C        1.4689100      -1.8387600      -0.1246200
O        1.1166700      -2.1356700      -1.2748900
C        0.5369800      -1.1951500       0.9128000
C        1.0416400      -1.2687100       2.3419700
N       -0.8158300      -1.5894500       0.7547800
C       -1.6004100      -2.0738500       1.8944100
C       -1.3620400      -1.0818100      -0.4395000
C       -2.8250100      -1.0605700      -0.6934200
O       -3.2870000      -1.0757700      -1.8272200
O       -3.5933900      -0.8607700       0.3836600
C       -4.9792800      -0.5837300       0.1475100
H        3.8625100      -1.5795000      -1.4508000
H        4.7220900      -2.5037500      -0.1819600
H        3.5365100      -3.3179500      -1.2406000
H        3.0311000      -1.8023800       1.1969000
H        1.9663600      -0.7353500       2.3936400
H        1.2412600      -2.3184700       2.7699900
H        0.3245600      -0.8084100       3.0187800
H       -1.9321000      -1.2465000       2.5798000
H       -1.0206400      -2.7778700       2.5021700
H       -2.5087700      -2.5879500       1.5601800
H       -0.8166500      -1.4826700      -1.3119600
H       -5.4333300      -0.4288800       1.1308700
H       -5.4695400      -1.4104800      -0.3773700
H       -5.0693800       0.3354200      -0.4572700
