9
dipolar_000080 reactant_1 (FRAG1 relaxed, reordered to d) type=dipolarophile
C       -1.7667900      -0.1743300       0.0816200
C       -0.3148700      -0.0651400       0.0395700
O       -2.3029400      -1.0525700       0.7413400
C        0.8954600       0.0357700      -0.0014100
C       -2.5269800       0.8408900      -0.7209100
Cl       2.5275700       0.1654100      -0.0520100
H       -2.2301600       0.7716700      -1.7803800
H       -3.6065300       0.6697900      -0.6161900
H       -2.2652200       1.8554800      -0.3783800
