13
dipolar_000080 reactant_2 (FRAG2 relaxed, reordered to d) type=dipole
C       -1.4786000       0.0456500      -0.3269500
C       -1.5531100      -1.2061700       0.3469900
C       -2.6943600       0.6524900      -0.9161900
N        2.5859800       2.2928500      -0.7035800
O       -0.3702500       0.6851200      -0.4496400
C        0.8983900       0.4551700      -0.0669800
C        1.8104600       1.4666400      -0.4215200
N       -1.7228000      -2.2287700       0.8775400
C        1.2991800      -0.6956200       0.6328600
N        1.6823500      -1.6341000       1.2137200
H       -3.1131700      -0.0191000      -1.6851900
H       -2.4450600       1.6228000      -1.3640200
H       -3.4659500       0.7809500      -0.1386800
