25
dipolar_000975 reactant_1 (FRAG1 relaxed, reordered to d) type=dipole
C        1.4606900       0.3456900      -0.3574200
N       -0.5494500      -1.0293800       0.1646800
C        0.7463100      -0.7664700       0.3715800
O        1.0736400       0.7144800      -1.4659400
C        1.5407300      -1.6849800       1.1018600
C        3.3897900       1.8229600      -0.3976600
N        2.2559100      -2.3806000       1.7064500
N        2.5789400       0.7958900       0.2293400
C       -1.3266400       1.3278600       0.1666500
C       -1.4497300      -0.0770300      -0.2359700
C       -2.4767700       2.2346300      -0.1865000
N       -3.6515100      -0.8509300      -1.3389900
C       -2.6534200      -0.5222100      -0.8312700
C       -1.0679500      -2.4007200       0.3671500
O       -0.3588000       1.7340000       0.8082100
H       -1.3427500      -2.8129400      -0.6132900
H        3.6963700       1.5126700      -1.4075100
H       -0.2937100      -3.0290000       0.8152000
H        2.7986200       0.5062200       1.1778300
H       -2.2585000       3.2469000       0.1753600
H        2.8336200       2.7704400      -0.4839700
H       -3.4170100       1.8765800       0.2608000
H       -2.6195000       2.2539600      -1.2789700
H       -1.9481000      -2.3608700       1.0188700
H        4.2851200       1.9882100       0.2128700
