35
dipolar_001906 reactant_2 (FRAG2 relaxed, reordered to d) type=dipolarophile
C       -1.0163900       1.5410400       1.1678200
C       -0.8119200       0.0345400       1.3889100
C       -0.7365700      -0.6918900       0.1221000
C       -0.3229100      -1.2899800      -0.8465800
C        0.5981600      -0.2372500       2.0235000
C        1.8224600       0.0434200       1.1295600
C        2.3803100      -1.1091700       0.2488300
C       -1.9168000      -0.5417900       2.2968100
C        2.0834700      -1.1062100      -1.2612800
C        0.8926900      -3.2975800      -1.4318900
C        0.7525200      -1.8450800      -1.6805100
C        0.5090200      -1.6375100      -3.1233500
C       -1.1276700       2.1056400      -0.1096500
C       -1.2958300       3.4854500      -0.2730100
C       -1.3534500       4.3246300       0.8412700
C       -1.2424500       3.7717100       2.1219100
N        0.3341600      -1.4386600      -4.2513400
C       -1.0763100       2.3948900       2.2821100
N        1.0293700      -4.4254500      -1.2043100
H       -1.7894300      -1.6286300       2.4093500
H        2.1047300      -2.0855400       0.6827400
H        0.6188100      -1.2872000       2.3574400
H        0.6587100       0.3823900       2.9311100
H        2.6363300       0.3344600       1.8109900
H        3.4776800      -1.0638500       0.3178200
H        1.6339600       0.9332300       0.5051600
H        2.8996100      -1.5949400      -1.8136400
H        1.9934300      -0.0766300      -1.6377600
H       -1.0818000       1.4640000      -0.9909000
H       -1.3803200       3.9021700      -1.2796500
H       -2.9115600      -0.3461700       1.8700900
H       -1.4830800       5.4021400       0.7152600
H       -0.9873100       1.9836600       3.2895600
H       -1.2844500       4.4165000       3.0031500
H       -1.8692800      -0.0853100       3.2954800
