18
dipolar_001906 reactant_1 (FRAG1 relaxed, reordered to d) type=dipole
C       -2.7812900      -0.3854400      -0.5011200
O        1.1300400       1.6098400      -0.4592000
C       -0.3977300      -0.1707000      -0.0164100
O        1.8391200      -0.2756800       0.5641300
C        0.8807000       0.4920100      -0.0116400
C       -1.6157400       1.6090100      -1.1024700
N       -1.5471900       0.4278800      -0.5621800
C       -0.5171700      -1.4591100       0.5370300
N       -0.6003100      -2.5304400       1.0009700
C        3.1530500       0.2830800       0.6240300
H       -3.0191100      -0.6007100       0.5478900
H       -3.5978300       0.1758900      -0.9640300
H       -2.6183600      -1.3268700      -1.0399800
H        3.7798200      -0.4720200       1.1139000
H        3.1594800       1.2131500       1.2121200
H        3.5390700       0.4920200      -0.3850500
H       -0.7205400       2.2231300      -1.1546200
H       -2.5796500       1.9405500      -1.4856200
