53
dipolar_001906 TS complex (tags stripped)
C       -0.7399300     -13.3677300       2.0963900
O       -2.0930600     -12.9240600       2.2146900
C       -2.8047500     -12.8007600       1.0658900
O       -2.2853400     -12.9910000      -0.0350900
C       -4.1746600     -12.4457000       1.3331500
C       -4.6766500     -12.4963700       2.6408600
N       -5.0968400     -12.5731000       3.7332700
C       -3.1889500      -9.7771100       0.7645700
C       -3.5421800      -9.5829300      -0.3571100
C       -4.7692400     -12.0110300      -0.9592500
N       -5.0615400     -12.0808300       0.3045900
C       -6.4366600     -11.7317700       0.7123400
C       -3.7942000      -8.9979700      -1.6773800
C       -5.2515200      -8.5318900      -1.8111000
C       -3.3212200      -9.8761900      -2.8404900
C       -2.1169500     -10.5924100      -2.7254500
C       -1.6348100     -11.3584800      -3.7872700
C       -2.3476600     -11.4205700      -4.9906200
C       -3.5436300     -10.7119500      -5.1147800
C       -4.0267100      -9.9455200      -4.0471800
C       -2.8260200      -7.7610800      -1.5885000
C       -2.9958900      -6.8307000      -0.3702100
C       -2.0203800      -7.0011900       0.8165900
C       -2.4270400      -7.8421000       2.0318200
C       -2.3143900      -9.4044800       1.8816600
C       -0.9439700      -9.7858200       1.4753600
N        0.1181800     -10.0609200       1.1003100
C       -2.6000600      -9.9897200       3.2037400
N       -2.8011100     -10.3391000       4.2901100
H       -0.1467800     -12.6817200       1.4783500
H       -0.3451700     -13.3777400       3.1244400
H       -0.7021900     -14.3790200       1.6718800
H       -5.4590700     -11.5322800      -1.6326700
H       -3.6965600     -12.1073900      -1.2478200
H       -6.8647600     -12.5298100       1.3156200
H       -6.3971800     -10.7970200       1.2977000
H       -7.0293600     -11.5764000      -0.1924400
H       -5.5557800      -7.9961800      -0.8965300
H       -5.3302300      -7.8430400      -2.6528600
H       -5.9384800      -9.3677800      -1.9553400
H       -1.5515900     -10.5627500      -1.7904000
H       -0.6977800     -11.9124300      -3.6784500
H       -1.9754300     -12.0198800      -5.8251900
H       -4.1137400     -10.7503500      -6.0447300
H       -4.9642200      -9.4042600      -4.1647500
H       -2.9479600      -7.2413600      -2.5000200
H       -1.7885300      -8.1795800      -1.5604800
H       -2.8416300      -5.8200800      -0.7580600
H       -4.0353400      -6.8491900       0.0019100
H       -1.0359700      -7.3183100       0.4561500
H       -1.8664100      -5.9941500       1.2494500
H       -1.8153700      -7.5947300       2.8803100
H       -3.4902700      -7.6560000       2.2940900
