29
dipolar_002585 reactant_2 @ TS geom
C        5.9220000       2.7645300       2.2634400
N        5.3731200       1.4820400       2.6799800
C        4.8757800       0.6204400       1.7695400
O        5.1191200       0.7534000       0.5593700
C        4.0519500      -0.5450600       2.3016400
C        4.6228900      -1.9169400       2.0885100
C        5.8612000      -2.1566400       1.4691300
C        6.2873300      -3.4640800       1.2203300
C        5.4931700      -4.5516200       1.5974800
C        4.2753900      -4.3247900       2.2469700
C        3.8459800      -3.0205800       2.4909100
N        3.5946900      -0.3751400       3.6108500
C        2.4197300       0.4054300       3.7850800
C        2.0474300       0.4744900       5.2690500
C        2.5020300       1.7574100       3.2106900
N        2.4703100       2.8301600       2.7609700
H        5.1495500       3.3854500       1.7433500
H        6.7622100       2.6443900       1.5574700
H        6.2788500       3.3418700       3.1301400
H        5.1890900       1.3871200       3.6775600
H        6.5037400      -1.3314900       1.1623900
H        7.2403000      -3.6446500       0.7082600
H        5.8119200      -5.5789800       1.3782500
H        3.6389000      -5.1628300       2.5393700
H        2.8808200      -2.8539400       2.9667800
H        3.5238300      -1.2276000       4.1873900
H        2.7886400       1.1018100       5.9333100
H        2.0764800      -0.5281900       5.7297100
H        1.0895000       0.9253300       5.4231300
