26
dipolar_002585 reactant_1 (FRAG1 relaxed, reordered to d) type=dipolarophile
C        0.7841400       0.2131600      -2.6828100
C        1.5042900      -1.1273300      -2.4224700
C        2.4430300      -1.2134600      -1.1733200
C        2.7940000      -2.6809300      -0.8820300
C        3.7311000      -0.3985800      -1.3957400
C        1.6463100      -0.6132100      -0.1024200
C        0.7914700       0.0175800       0.4866300
C       -0.6952900       1.4191800      -0.8293500
C       -0.6050500       0.4484100      -2.0233400
C       -0.4078600       0.8083800       0.5520200
Cl      -0.3007800       2.1326200       1.7963900
Br      -1.9434300      -0.3847500       1.0918800
H        1.8887100      -3.2712200      -0.6745900
H        3.4674500      -2.7591300      -0.0148500
H        3.3023200      -3.1207800      -1.7541600
H        4.3631500      -0.4134800      -0.4949600
H        4.3031600      -0.8369800      -2.2281600
H        3.5078000       0.6501300      -1.6406900
H        0.7498100      -1.9269000      -2.3382700
H       -1.0652600      -0.5157800      -1.7508200
H        0.0382400       2.2315200      -0.9595200
H        1.4550100       1.0561700      -2.4467300
H       -1.6893400       1.8879200      -0.7859700
H       -1.2635000       0.8774500      -2.7938700
H        0.6281100       0.2669800      -3.7713600
H        2.1303500      -1.3780600      -3.2948800
