26
dipolar_002585 reactant_1 @ TS geom
C        1.3601300      -0.2893300       2.3660600
C        2.1559600      -0.5076300       1.3539600
C        2.0661500      -0.7711300      -0.1628700
C        2.1215500       0.5944900      -0.8878400
C        3.2359900      -1.6348100      -0.6731500
C        0.7459900      -1.4763500      -0.5860600
C        0.3520600      -2.6676000       0.2991700
C       -0.9266800      -2.4336300       1.1100200
C       -1.1022600      -1.0458000       1.7355500
C       -0.0580200      -0.5578400       2.7460200
Cl      -0.0252600      -1.7838700       4.1319300
Br      -0.8804700       1.1536400       3.4954500
H        1.2776800       1.2353900      -0.6374200
H        2.0700700       0.4400700      -2.0258600
H        3.0577600       1.1195600      -0.7025800
H        3.1783400      -1.7668000      -1.7709500
H        4.1922700      -1.1528300      -0.4407500
H        3.2242900      -2.6307100      -0.2143800
H        0.8699200      -1.8289800      -1.6678200
H       -0.0735300      -0.7442400      -0.6619700
H        0.1945900      -3.5772600      -0.3174400
H        1.1788100      -2.8964600       0.9617000
H       -1.8087000      -2.5782100       0.4446500
H       -1.0106700      -3.2141700       1.8807100
H       -2.1109600      -1.0689900       2.2618600
H       -1.2059800      -0.2826100       0.9700600
