10
dipolar_000133 reactant_1 (FRAG1 relaxed, reordered to d) type=dipole
C       -2.7346300      -0.0782600      -0.1075700
O       -1.4547100      -0.7320200      -0.1007600
C       -0.3952200       0.0581400      -0.0103800
O       -0.4080800       1.2668600       0.0653200
N        0.7593000      -0.7517300      -0.0175100
N        1.8378800      -0.1476300       0.0591700
N        2.8742400       0.2907300       0.1237600
H       -2.8824400       0.4800600       0.8278500
H       -2.8086300       0.6067600      -0.9641600
H       -3.4774000      -0.8790800      -0.1945500
