15
dipolar_000133 reactant_2 @ TS geom
C       -0.9187900       1.3068800      -0.8934700
C       -1.3875800      -0.1132400      -1.2770300
O       -0.3501100      -0.9351000      -0.7396300
C       -0.3310800      -0.3377400       0.5565200
C       -1.8289500      -0.5290700       0.9475100
C       -2.3240600      -0.6401600       2.2581400
N       -2.7049800      -0.7396800       3.3556300
C       -2.5001000      -0.3815400      -0.2157400
C       -3.8828200      -0.2918300      -0.4466300
N       -5.0247900      -0.2175300      -0.6705600
C       -0.2685900       1.1726800       0.2189800
H       -1.1374800       2.1953600      -1.4664200
H       -1.6284300      -0.3782600      -2.3198100
H        0.4137200      -0.8270600       1.2214800
H        0.2164500       1.8848400       0.8779700
