15
dipolar_000133 reactant_2 (FRAG2 relaxed, reordered to d) type=dipolarophile
C       -1.3018400       0.6592600      -0.6963900
C        0.1561000       0.7415800      -0.1417500
O       -1.1577000      -0.4948800      -1.5291200
C       -1.7869000      -1.1777800       0.5720500
C        0.5410100      -0.5488300      -0.0151700
C       -0.6951400      -1.3719500      -0.4981900
N        2.7240600      -1.5406400       0.9212300
C        1.7411100      -1.0777800       0.5016900
C        0.8470600       1.9196600       0.2079300
N        1.3965900       2.9084400       0.4849800
C       -2.1676000       0.0963800       0.4477000
H       -1.6570300       1.5399300      -1.2389900
H       -2.8769100       0.6783600       1.0340600
H       -2.0956000      -1.9366800       1.2892300
H       -0.4851700      -2.3839100      -0.8559000
