25
dipolar_000133 TS complex (tags stripped)
C        3.9561300      -0.7233200       1.9031000
O        3.0140200       0.0926100       1.1880700
C        3.1044100       0.0638500      -0.1370200
O        3.8729600      -0.6114000      -0.7952000
N        2.1869900       0.9697400      -0.6335800
N        1.7332900       0.9339700      -1.7716900
N        1.0995100       1.1027800      -2.7257700
C       -0.9187900       1.3068800      -0.8934700
C       -1.3875800      -0.1132400      -1.2770300
O       -0.3501100      -0.9351000      -0.7396300
C       -0.3310800      -0.3377400       0.5565200
C       -1.8289500      -0.5290700       0.9475100
C       -2.3240600      -0.6401600       2.2581400
N       -2.7049800      -0.7396800       3.3556300
C       -2.5001000      -0.3815400      -0.2157400
C       -3.8828200      -0.2918300      -0.4466300
N       -5.0247900      -0.2175300      -0.6705600
C       -0.2685900       1.1726800       0.2189800
H        3.8261200      -1.7772200       1.6236300
H        4.9766800      -0.3961300       1.6616100
H        3.7495100      -0.5807600       2.9679200
H       -1.1374800       2.1953600      -1.4664200
H       -1.6284300      -0.3782600      -2.3198100
H        0.4137200      -0.8270600       1.2214800
H        0.2164500       1.8848400       0.8779700
