31
dipolar_001901 reactant_2 (FRAG2 relaxed, reordered to d) type=dipole
C        2.4648100      -0.1527400      -0.5288900
N        3.0458000       1.1027100      -0.5283300
C        1.1942800      -0.2010900       0.1225200
O        3.0730300      -1.0990800      -1.0978800
C        4.4288900       1.2767800      -0.9104100
N        0.3683100      -1.3047200       0.2329000
C       -0.9421600      -1.2355900       0.4665500
C       -1.5362900       0.8759000      -0.7757700
C       -2.3039900       2.0303100      -0.9065100
C       -1.6730400       0.0423600       0.3556400
C       -3.2152500       2.3940000       0.0946200
C       -3.3593200       1.5804700       1.2204900
C       -2.6027800       0.4119300       1.3465400
C       -1.6878200      -2.4637600       0.8988200
C        0.9941000      -2.6442300       0.2452800
H        5.1379700       0.7873300      -0.2153900
H        2.0340800      -2.5418100      -0.0665100
H        4.6129900       0.8611900      -1.9119700
H        0.9330900      -3.0594400       1.2602700
H        2.6506400       1.7949500       0.0984200
H        0.7474600       0.7378100       0.4385100
H       -2.7275800      -0.2176300       2.2300300
H       -0.8291800       0.6072200      -1.5625900
H       -2.1942500       2.6523000      -1.7981900
H       -3.8092900       3.3051200      -0.0073000
H        0.4659500      -3.3106300      -0.4470600
H       -4.0656500       1.8530900       2.0082900
H       -2.7514100      -2.2333500       1.0272300
H       -1.6118500      -3.2729400       0.1540700
H       -1.3061400      -2.8710000       1.8517400
H        4.6619600       2.3499300      -0.9367600
