24
dipolar_001901 reactant_1 @ TS geom
C       -0.1507000      -0.9495800       0.9372200
C       -1.4746000      -1.5617900       0.8655300
O       -2.4562100      -1.0899800       1.4808600
N       -1.5703000      -2.7264000       0.1761600
C       -2.8401400      -3.3700900      -0.0546800
C        0.2111800      -0.0318000       2.1135600
C        0.7108700      -0.9923800       3.2213100
C        1.8852600      -1.4493300       2.7766000
C        2.0928300      -0.7401700       1.4074000
O        1.4688000       0.5166800       1.6637500
C        1.0238900      -1.4063000       0.5027900
O        1.2386300      -2.4685700      -0.2999800
C        2.5818800      -2.7866700      -0.6793900
H       -0.7338000      -3.0301500      -0.3404800
H       -2.6557100      -4.2943600      -0.6159000
H       -3.5116000      -2.7257000      -0.6248000
H       -3.3196900      -3.6244800       0.8983400
H       -0.5083200       0.7682500       2.4015500
H        0.0842400      -1.3160000       4.0281400
H        2.4933700      -2.2395600       3.1242100
H        3.1223300      -0.6030400       1.0602900
H        3.0386300      -1.9907800      -1.2691400
H        2.4882900      -3.7015700      -1.2802600
H        3.1808800      -2.9990100       0.2150500
