31
dipolar_001901 reactant_2 @ TS geom
C        4.6748800       1.7993400      -0.1346600
N        3.2567700       1.6317400      -0.3835800
C        2.8276300       0.7677100      -1.3646500
O        3.6963000       0.1894700      -2.0879400
C        1.4408500       0.4635700      -1.5467200
N        0.3173100       1.1591200      -1.1470400
C        0.5129400       2.5521700      -0.6959600
C       -0.9216400       0.6808900      -1.3156300
C       -1.1042000      -0.5792100      -2.1067200
C       -2.1154800       1.4045100      -0.8618900
C       -3.2663400       1.3766500      -1.6791000
C       -4.4351300       2.0370200      -1.3054500
C       -4.4984100       2.7292900      -0.0920200
C       -3.3806900       2.7391500       0.7489100
C       -2.2085400       2.0825800       0.3754900
H        5.1703300       2.1421300      -1.0677700
H        4.8072600       2.5947800       0.6195500
H        5.1919100       0.8978800       0.2042400
H        2.6423800       1.7502500       0.4299400
H        1.2755900      -0.4381200      -2.1373100
H        0.6817100       2.6128200       0.3613300
H       -0.3584900       3.1231800      -0.9967100
H        1.3906700       2.9447400      -1.2451100
H       -0.3944400      -1.3944400      -1.8872200
H       -1.0103500      -0.3155800      -3.1456000
H       -2.1197000      -1.0105400      -1.9337800
H       -3.2116600       0.8316600      -2.6151500
H       -5.2745400       2.0160100      -1.9840300
H       -5.4070100       3.2556900       0.1817700
H       -3.4273800       3.2731200       1.7076100
H       -1.3671200       2.0903500       1.0831600
