27
dipolar_001172 reactant_2 @ TS geom
C       -1.0166400      -0.7093400      -0.7694000
Br      -2.2795100       0.8505700      -1.0886200
C       -1.9070200      -1.9749900      -0.4880100
C       -2.7907100      -1.8044900       0.7845600
C       -1.7589000      -1.8308000       1.9514100
C       -0.4071700      -1.9858800       1.1935900
C       -0.8395600      -2.9382200       0.0632600
C       -0.1524800      -0.6637800       0.4534100
C        0.4000400       0.4799400       1.1474000
C        1.0300600       0.3042400       2.4153500
C        1.6246000       1.3620400       3.0920200
C        1.6208600       2.6530900       2.5430300
C        1.0085400       2.8564000       1.3037600
C        0.4164700       1.7973700       0.6135100
H       -2.4933700      -2.2684800      -1.3582500
H       -3.5005500      -2.7043000       0.8942000
H       -3.4299400      -0.9311600       0.8184000
H       -1.7942000      -0.9562800       2.5998500
H       -1.8991400      -2.7311900       2.6348500
H        0.4292900      -2.3237600       1.8043400
H       -0.0637200      -3.1571600      -0.6623800
H       -1.2709700      -3.8689900       0.4342800
H        1.0529100      -0.6847000       2.8681200
H        2.1126200       1.1802700       4.0575900
H        2.0972300       3.4831500       3.0782000
H        1.0059100       3.8574900       0.8607700
H       -0.0523100       2.0003500      -0.3382200
