27
dipolar_001172 reactant_2 (FRAG2 relaxed, reordered to d) type=dipolarophile
C        0.1184200      -0.7344600      -0.3900900
Br       0.6385100       2.1330600       0.0138100
C        1.0220700      -1.9461200      -0.6562500
C       -1.7307100      -2.0437400       0.6382000
C       -1.2779500      -0.8488300       0.0396300
C        2.0226600      -1.3618300      -1.6713200
C        2.3575200      -0.1445900      -0.7879100
C        0.9505800       0.3306200      -0.4814800
C       -2.2089000       0.1955200      -0.1406500
C        1.9365500      -2.1000000       0.6011500
C        2.8599800      -0.8515300       0.5119300
C       -3.5327000       0.0544400       0.2764000
C       -3.9619800      -1.1299500       0.8853000
C       -3.0538000      -2.1782900       1.0623300
H        1.5559800      -1.0840400      -2.6274800
H        0.4888900      -2.8588300      -0.9488800
H       -1.0360100      -2.8721000       0.7853500
H        1.3482200      -2.1349900       1.5286800
H        2.5155800      -3.0331200       0.5334000
H        2.8892500      -2.0164200      -1.8516300
H        3.0352700       0.6164200      -1.1925600
H        3.9167300      -1.1363000       0.3994600
H        2.7801400      -0.1900300       1.3863200
H       -1.8972900       1.1187000      -0.6285300
H       -4.2369400       0.8751200       0.1191700
H       -4.9987000      -1.2370100       1.2129400
H       -3.3773800      -3.1102500       1.5322200
