41
dipolar_001172 TS complex (tags stripped)
C        4.1757500       0.9195800       0.4790000
O        3.4425000      -0.2588500       0.1302600
C        2.5347800      -0.1353700      -0.8679400
O        2.3266100       0.9354600      -1.4345400
C        1.8864700      -1.4022400      -1.1280800
N        0.9781100      -1.5827300      -2.1234700
C       -0.1768000      -0.7284600      -2.1476100
C       -1.0166400      -0.7093400      -0.7694000
Br      -2.2795100       0.8505700      -1.0886200
C       -1.9070200      -1.9749900      -0.4880100
C       -2.7907100      -1.8044900       0.7845600
C       -1.7589000      -1.8308000       1.9514100
C       -0.4071700      -1.9858800       1.1935900
C       -0.8395600      -2.9382200       0.0632600
C       -0.1524800      -0.6637800       0.4534100
C        0.4000400       0.4799400       1.1474000
C        1.0300600       0.3042400       2.4153500
C        1.6246000       1.3620400       3.0920200
C        1.6208600       2.6530900       2.5430300
C        1.0085400       2.8564000       1.3037600
C        0.4164700       1.7973700       0.6135100
H        4.8382800       0.6427100       1.3062600
H        3.5006300       1.7240900       0.7949000
H        4.7849000       1.2786200      -0.3735800
H        2.4474400      -2.3175700      -0.8223800
H        0.8308500      -2.5534900      -2.3919200
H       -0.7402900      -1.0490800      -3.1162000
H        0.2246600       0.3292700      -2.3331400
H       -2.4933700      -2.2684800      -1.3582500
H       -3.5005500      -2.7043000       0.8942000
H       -3.4299400      -0.9311600       0.8184000
H       -1.7942000      -0.9562800       2.5998500
H       -1.8991400      -2.7311900       2.6348500
H        0.4292900      -2.3237600       1.8043400
H       -0.0637200      -3.1571600      -0.6623800
H       -1.2709700      -3.8689900       0.4342800
H        1.0529100      -0.6847000       2.8681200
H        2.1126200       1.1802700       4.0575900
H        2.0972300       3.4831500       3.0782000
H        1.0059100       3.8574900       0.8607700
H       -0.0523100       2.0003500      -0.3382200
