13
dipolar_000372 reactant_2 (FRAG2 relaxed, reordered to d) type=dipolarophile
C        1.1327700       0.5747100       0.5080700
C       -1.2821000       1.2457700       0.4556200
O       -0.1530200       0.5312200      -1.4075600
C       -0.5083300      -0.6177800      -0.6181000
C        0.0785200       1.3985200      -0.2700800
C        0.7432200      -0.6774800       0.2774200
F        1.2118700      -1.8264600       0.7553300
C       -1.6494600      -0.0205300       0.2425100
H        1.9187700       0.9654700       1.1504000
H       -1.7654700       2.0210500       1.0493900
H       -0.7263800      -1.5056200      -1.2218200
H        0.3726700       2.4077700      -0.5778600
H       -2.5130600      -0.5733000       0.6102300
