34
dipolar_000372 TS complex (tags stripped)
C        3.9124700      -0.8317000       2.3119900
N        2.9230500      -0.9504900       1.2606100
C        2.6598400       0.0810400       0.4255400
O        3.1863300       1.1941400       0.5639500
C        1.7822600      -0.1947800      -0.7378800
C        1.8769500       0.7042600      -1.8194000
N        1.9746700       1.4508600      -2.7172100
N        0.7782900      -1.1104100      -0.7944200
C        0.2789100      -1.9395100       0.1129100
C       -0.9426500      -2.6427600      -0.2543200
C       -1.6848400      -3.3470300       0.8494600
O       -1.3449200      -2.6305200      -1.4306500
C       -1.0218000       0.3335700       1.1234700
C       -2.1416500       0.3326900       0.0467800
O       -1.4086300       0.7225500      -1.1220500
C       -0.8106400       1.8935700      -0.5190900
C       -2.0723100       2.6512700      -0.0314800
C       -2.8779400       1.6544400       0.3243100
F       -4.0468600       1.6660700       0.9666300
C       -0.2006800       1.2662600       0.7678100
H        4.9318500      -0.7292300       1.8974600
H        3.7024100       0.0337900       2.9372800
H        3.8685300      -1.7457200       2.9162100
H        2.6026000      -1.8701700       0.9878900
H        0.3061800      -1.1942100      -1.6919400
H        0.5775900      -1.8468600       1.1746800
H       -2.5818800      -3.8566100       0.4467600
H       -1.0194300      -4.0916200       1.3105800
H       -1.9961900      -2.6541200       1.6544400
H       -1.0279000      -0.3214900       1.9872800
H       -2.7721600      -0.5606100      -0.1489900
H       -0.1627000       2.4202700      -1.2471700
H       -2.1288900       3.7032100       0.1478700
H        0.6961100       1.6423900       1.2402400
