39
dipolar_001928 reactant_2 (FRAG2 relaxed, reordered to d) type=dipolarophile
C       -1.3159600      -0.6840200      -2.2030200
C       -0.5198700      -1.3692300      -0.0365800
C       -0.1841600      -0.5019500       0.7381000
O       -2.3801000      -2.4670000      -0.8483500
C       -3.2491300      -2.9102800      -1.8853400
O       -0.3576900      -2.8346500      -1.9500100
C       -2.0379600       0.5314000      -1.5909800
C        0.0028300       0.8400500       1.2926100
C       -1.1529500      -1.8993900      -1.2647500
C        2.2420500       0.8593600       0.0432500
C        1.3977200       1.4259400       1.0040800
C       -1.1767700       1.6412400      -0.9252400
C        3.4744600       1.4536100      -0.2482800
N       -0.4486700       0.8427000       3.8882000
C        3.8725200       2.6146000       0.4182200
C        3.0308100       3.1819700       1.3810500
C        1.7998700       2.5915800       1.6717600
C       -1.1240800       1.7157900       0.6112100
C       -0.2381200       0.8326500       2.7474400
C       -0.0411700      -4.0094200      -1.2152100
H       -0.9383800      -4.6116700      -1.0002500
H       -3.9875200      -3.5728000      -1.4127900
H       -3.7808000      -2.0696500      -2.3612700
H       -2.8105800       0.1799500      -0.8869200
H       -2.0908200       1.4059000       1.0366100
H       -2.5893400       1.0089700      -2.4147500
H        0.4538000      -3.7582400      -0.2599900
H       -0.9422400       2.7524400       0.9306400
H        0.6501500      -4.5970600      -1.8339600
H        1.9390900      -0.0478500      -0.4807300
H        4.1247700       1.0017100      -1.0008000
H        1.1490800       3.0422100       2.4248800
H       -0.1528600       1.6191800      -1.3337900
H       -0.3060500      -0.4047600      -2.5387600
H        4.8360600       3.0764100       0.1907900
H        3.3334100       4.0884700       1.9102400
H       -1.5950000       2.6079200      -1.2446900
H       -1.8554600      -1.0364700      -3.0946100
H       -2.7044300      -3.4772100      -2.6565500
