19
dipolar_000721 reactant_2 (FRAG2 relaxed, reordered to d) type=dipole
C       -4.9068700       0.1190400      -0.5293000
O       -3.5708600       0.1428500       0.0206000
C       -2.5788300       0.0013300      -0.8383700
O       -2.6459800      -0.1484900      -2.0380900
C       -1.2960500       0.0456100      -0.1650900
N       -0.2217700       0.0547000       0.2908900
C        1.0277800       0.0545400       0.7334400
C        1.2780200       0.2098900       2.1156700
N        1.4952200       0.3375700       3.2545900
C        2.0865400      -0.1137400      -0.2678000
O        3.2987600      -0.0997600       0.2977400
O        1.8795900      -0.2490400      -1.4602100
C        4.4199100      -0.2567600      -0.5845500
H       -5.0909400      -0.8448600      -1.0232400
H       -5.5775000       0.2501000       0.3261200
H       -5.0293200       0.9402300      -1.2487700
H        4.3635500      -1.2207000      -1.1104600
H        4.4487000       0.5612000      -1.3189100
H        5.3102800      -0.2245700       0.0536400
