19
dipolar_000721 reactant_2 @ TS geom
C        4.7244200       1.2325600       0.2856300
O        3.3548600       0.9633700       0.6872200
C        2.4055900       1.2216500      -0.1900700
O        2.5537700       1.7423100      -1.2687400
C        1.0516700       0.6205100       0.2495100
N        0.1772600       1.3816700       0.8425800
C       -1.0850400       0.7906800       1.1404900
C       -1.3363700       0.5732400       2.5392200
N       -1.5297900       0.3040700       3.6561000
C       -2.2739300       1.2681800       0.3733500
O       -3.4141000       0.9561100       0.6722800
O       -1.9385500       1.9693900      -0.7048200
C       -2.9775200       2.2262400      -1.6663300
H        4.8880400       2.2984600       0.0996500
H        5.3594900       0.8866500       1.1197300
H        4.9672500       0.6523200      -0.6265600
H       -3.7867500       2.8169600      -1.2262600
H       -3.3817000       1.2696300      -2.0469900
H       -2.5005900       2.7766200      -2.4873900
