17
dipolar_000721 reactant_1 @ TS geom
C       -0.7836700      -1.2639500       0.2035200
C       -1.3055400      -2.1760100       1.2769900
C       -1.4798400      -1.2437800      -1.1853700
C       -1.1658600      -2.5825400      -1.8826800
C        0.1260400      -2.4996900      -2.2257200
C        0.5798700      -1.1148600      -1.7463700
O       -0.6152500      -0.3505200      -1.9101200
C        0.6431700      -1.0536500      -0.1480900
C        1.6610200      -1.8391700       0.5362200
N        2.5323200      -2.3665100       1.0980700
H       -0.6978900      -2.1363000       2.1898300
H       -2.3452900      -1.8489200       1.5387000
H       -1.3920900      -3.2373300       0.9706300
H       -2.5185600      -0.9286000      -1.1720700
H       -1.8848300      -3.4065500      -2.0684200
H        0.7500400      -3.2317200      -2.7777800
H        1.4460700      -0.6686800      -2.2178200
