26
dipolar_002861 reactant_1 @ TS geom
C       -0.8719400       4.1547700       1.4011700
O       -0.2515500       3.0766900       0.6771800
C        1.0596700       2.9365700       0.8062700
O        1.7832400       3.6662900       1.4400200
C        1.5662900       1.7139000       0.0131100
F        2.7976000       1.3750000       0.5852300
C        1.8526000       2.1475700      -1.4311700
C        2.1691300       0.9776900      -2.3736200
C        1.0448700       0.6522300      -3.3608700
C       -0.3811800       0.5676600      -2.8042600
C       -0.6960600      -0.4763900      -1.7287900
Br      -0.2087600      -2.2895200      -2.4045400
Br      -2.7028200      -0.4264700      -1.5249600
C       -0.1304000      -0.3651600      -0.3251300
C        0.6663000       0.5182500       0.2474500
H       -0.4549800       5.1182600       1.0785700
H       -0.7139300       4.0174300       2.4794900
H       -1.9372800       4.0943800       1.1581200
H        1.0175400       2.7591500      -1.7949500
H        2.7264200       2.8535500      -1.3666400
H        2.4356200       0.0979300      -1.7872200
H        3.0660600       1.2231700      -2.9709900
H        1.3008200      -0.2747800      -3.9007000
H        1.0186400       1.4461400      -4.1406000
H       -0.7126700       1.5338800      -2.4334900
H       -1.0535400       0.3661500      -3.7109700
