19
dipolar_002861 reactant_2 (FRAG2 relaxed, reordered to d) type=dipole
C       -0.4723600       1.5672000      -1.3866500
C        0.3876200      -0.2290500       0.2156200
O       -1.6339500      -1.0571400       0.7823900
O        2.6262500      -0.6854100       0.7637900
C        1.8225800      -0.0116800       0.1394800
C        3.5764100       1.2644200      -0.7946300
O        2.1732000       0.9928300      -0.6742200
O        0.1512700      -2.0903900       1.7855300
C       -1.7862200      -0.0578000      -0.0810700
C       -3.0644300       0.3524600      -0.5163600
N       -0.6206800       0.4582900      -0.4418100
N       -4.1247200       0.6796300      -0.8665600
C       -0.2255200      -1.2294700       1.0261100
H        0.0281000       2.4019300      -0.8843300
H        4.0014800       1.5365800       0.1821300
H        4.1063000       0.3868100      -1.1919300
H       -1.4688300       1.8706000      -1.7256800
H        0.1319100       1.2335500      -2.2371300
H        3.6595200       2.1056700      -1.4921600
