19
dipolar_002861 reactant_2 @ TS geom
C        0.6062900      -0.1255800       2.1051400
C        0.8862500       0.9227600       3.1667100
O        0.0191900       1.6210100       3.6419600
O        2.1701000       1.0099900       3.4474200
C        2.5768100       2.1054500       4.2958100
C        1.5721400      -1.2378300       1.7717400
O        2.7454300      -1.3760400       1.9577200
O        0.8117900      -2.1626600       1.0967900
C       -0.4620900      -1.5138600       0.8633900
C       -1.4879900      -2.5727500       0.7045900
N       -2.2964000      -3.3878100       0.5426300
N       -0.6456100      -0.7427300       2.0797000
C       -1.8986500      -0.0192000       2.2435800
H        2.2941000       3.0603900       3.8172000
H        3.6647200       2.0326400       4.3784400
H        2.1046800       2.0316100       5.2826400
H       -1.9136100       0.8777600       1.6262700
H       -2.7196000      -0.6957500       1.9701100
H       -2.0041700       0.2539900       3.3042800
