35
dipolar_002731 reactant_1 @ TS geom
C        4.0171500       4.8535400       5.1764000
N        2.5951200       4.6500400       5.3231600
C        2.0738400       3.4371900       5.5832400
O        2.7620500       2.4423900       5.8148800
C        0.5745900       3.4142600       5.6341400
C       -0.1567400       3.0987800       6.8450500
C        0.5170300       2.6366700       7.9994600
C       -0.1853300       2.4138700       9.1815300
C       -1.5617300       2.6544300       9.2454900
C       -2.2386900       3.1082500       8.1057600
C       -1.5525300       3.3218000       6.9165800
O       -0.1585200       3.7856400       4.6299400
C       -0.0218900       4.1999700       3.3568200
C       -1.2750300       4.5409800       2.8117900
N       -2.3176700       4.8171000       2.3440700
C        1.2153900       4.3222700       2.5823600
C        2.2763900       3.3888800       2.5863700
C        3.4043300       3.5978700       1.7912300
C        3.5013600       4.7292900       0.9724100
C        2.4450900       5.6459500       0.9393200
C        1.3152600       5.4422700       1.7290300
H        4.1243200       5.8672100       4.8123900
H        4.4189000       4.1341500       4.4802700
H        4.4844800       4.7420300       6.1564400
H        1.9049800       5.3654900       5.0979900
H        1.5889700       2.4372200       7.9517700
H        0.3565400       2.0685900      10.0610600
H       -2.0971000       2.5096500      10.1799900
H       -3.3086500       3.3114400       8.1496500
H       -2.0888300       3.6521800       6.0233400
H        2.2551500       2.4505700       3.1610500
H        4.2491500       2.8862000       1.7948900
H        4.3895600       4.9380800       0.3753700
H        2.4782800       6.5472600       0.3462800
H        0.4714300       6.1181200       1.7273100
