26
dipolar_002731 reactant_2 @ TS geom
C       -0.1172100       1.2776200       3.0055700
C       -0.0667200       0.7982400       4.1066700
C       -0.1003700      -0.2234500       5.1606200
C        1.2087600      -0.3755700       5.9565500
C       -1.2274000      -0.0204200       6.0876900
N       -2.1286700       0.0372100       6.8182700
C       -0.3831300      -1.5195400       4.3218000
C       -1.6096300      -1.4566400       3.3877200
C       -1.3664900      -1.2256400       1.8774700
C       -1.4335500       0.1823500       1.2737000
C       -0.1999200       1.1229100       1.5457300
C        1.0635500       0.4599600       1.1524700
N        2.0529900      -0.0897000       0.8917900
C       -0.3521300       2.3270700       0.7014300
N       -0.5023300       3.1881800      -0.0579200
H        1.1265600      -1.2592000       6.5770200
H        1.4216100       0.5074600       6.5870000
H        2.0550100      -0.4892500       5.2540200
H       -0.4286400      -2.2896100       5.0173600
H        0.5530200      -1.6298500       3.7009400
H       -2.0801100      -2.4169200       3.4880400
H       -2.3420500      -0.7105800       3.7789800
H       -0.4443900      -1.6948000       1.5684500
H       -2.1832400      -1.7383300       1.3548500
H       -2.3154600       0.7604100       1.6771900
H       -1.5244500       0.1423100       0.2120100
