21
dipolar_001769 reactant_1 (FRAG1 relaxed, reordered to d) type=dipole
C        1.7285400       0.1282200      -0.1526200
O        2.9995100      -0.3026800      -0.3233300
C       -1.0898100       0.3003300       0.1309100
O        1.4655000       1.3201600      -0.0142700
N        0.9091500      -0.9689800      -0.1695100
C       -2.5516200       0.3946600       0.2781000
C       -3.0463200       1.8089300       0.4368000
C       -1.0933000      -2.1300600      -0.0712300
O       -3.3188800      -0.5637100       0.2745400
N       -0.4035100      -0.8190700      -0.0282200
C        4.0112200       0.7052300      -0.3336300
H       -0.3164500      -2.8857900      -0.2046700
H        4.0317900       1.2529300       0.6208600
H       -1.6407900      -2.2850200       0.8645900
H       -2.7580500       2.4084400      -0.4425500
H       -1.8035200      -2.1405500      -0.9050400
H       -0.5071500       1.2154900       0.1503200
H       -2.5723400       2.2795200       1.3138800
H       -4.1376000       1.8140100       0.5518400
H        3.8467400       1.4204100      -1.1539400
H        4.9619200       0.1787700      -0.4825700
