21
dipolar_001769 reactant_1 @ TS geom
C       -0.5510300       0.2602800      -5.2430500
O       -0.5017300       0.7508100      -3.8825900
C        0.1455500      -0.0064700      -2.9983300
O        0.7536400      -1.0303400      -3.2872200
N        0.1393000       0.4963800      -1.7088800
C       -0.5537800       1.9707800      -0.1747100
C        0.7413600       2.6319400       0.1898300
C        2.0147600       2.3927900      -0.5682900
O        0.7044900       3.3920400       1.1516100
N       -0.8196400       1.3470300      -1.3388800
C       -2.2290500       1.0704200      -1.6789000
H       -1.2167600       0.9463600      -5.8561700
H       -1.0667000      -0.7582000      -5.2938500
H        0.4059600       0.1790000      -5.7151700
H       -1.4366900       2.5151400       0.2088600
H        2.7808100       3.0856700      -0.1534300
H        2.3341300       1.3578300      -0.3711100
H        1.9094800       2.5179200      -1.6335500
H       -2.8521400       1.4353400      -0.9010400
H       -2.4757000       1.5721000      -2.6509700
H       -2.3248000      -0.0132400      -1.8208600
