28
dipolar_001769 reactant_2 @ TS geom
C        0.2596000      -0.5867100       0.0109700
C       -0.1470000       0.2027400       0.8954000
C       -0.5666100       0.3176200       2.3297700
C       -1.9367000       0.8573700       2.3534600
N       -3.0300100       1.2511600       2.3498000
C        0.4378900       1.2183600       3.1299800
C       -0.1244800       2.1842600       4.1209800
O        1.6225300       1.0422000       2.9355000
C       -0.5666700      -1.0661400       3.0695600
C       -1.2459000      -2.1950600       2.2751900
C       -0.2845500      -3.2679400       1.7450300
C        0.9726700      -2.8129000       1.0016100
C        0.7582600      -1.9615300      -0.3080700
C        2.0830700      -1.8714200      -0.9595700
N        3.1761300      -1.8117400      -1.3377400
C       -0.2205700      -2.6452600      -1.1818600
N       -1.0546000      -3.1981700      -1.7690800
H       -0.8693700       1.6994100       4.8028300
H       -0.6696600       2.9766300       3.5885900
H        0.6718000       2.6437300       4.7400800
H        0.4623200      -1.3210300       3.3561400
H       -1.0979200      -0.9291700       4.0895300
H       -1.9678900      -2.7313600       2.9591300
H       -1.8391400      -1.7882500       1.4911600
H        0.0772300      -3.8910100       2.6146100
H       -0.8748400      -3.9767000       1.1385800
H        1.6572800      -2.2903900       1.6451300
H        1.5112300      -3.7846500       0.7020000
