29
dipolar_002408 reactant_1 (FRAG1 relaxed, reordered to d) type=dipolarophile
C        0.1999500      -0.0973100      -3.0907900
C        1.7128300       0.2065600      -3.1200800
C        2.5804100      -0.5290800      -2.0596100
C        3.9968600       0.0431800      -1.9653100
C        1.8130900      -0.4719300      -0.8182900
C        0.8853800      -0.3567200      -0.0472100
C       -0.6853500       0.7719600      -2.1504900
C       -1.3517800       0.0934400      -0.9365300
C       -0.4860700      -0.0611900       0.3635100
C       -1.0506100      -1.2312000       1.2042300
F       -2.3497500      -1.0646500       1.4882400
F       -0.0955600       2.2857400       0.4618000
F       -0.9318500      -2.3848800       0.5308500
C       -0.5120200       1.2437300       1.1957700
F       -0.3978000      -1.3815500       2.3658600
F       -1.7467100       1.5320700       1.6332900
F        0.2890500       1.1718300       2.2683500
H        3.9716500       1.0973600      -1.6475200
H        4.6075600      -0.5206500      -1.2440200
H        2.6475700      -1.5926900      -2.3501400
H        4.4896800      -0.0082700      -2.9482300
H       -0.1256600       1.6607700      -1.8259500
H        1.8659800       1.2925900      -2.9973400
H       -1.5232500       1.1591100      -2.7504400
H       -2.2641400       0.6415200      -0.6592800
H       -1.6711500      -0.9163400      -1.2311800
H       -0.1706000       0.0538900      -4.1165100
H        0.0416500      -1.1685200      -2.8778500
H        2.1227300      -0.0572100      -4.1085000
