20
dipolar_002408 reactant_2 (FRAG2 relaxed, reordered to d) type=dipole
C        3.7399400      -0.4671800       0.2993100
O        2.4749600      -0.8328700      -0.2785800
C        1.4400500      -0.0422900      -0.0048500
O        1.4869500       0.9330100       0.7186600
C        0.2416200      -0.4594500      -0.7703700
C        0.4396700      -1.3069500      -1.8891200
N        0.6357500      -2.0179900      -2.7914500
C       -1.3854600       0.5662300       0.6572400
C       -2.5698000       1.3420400       0.7317100
N       -3.5364700       1.9840400       0.8374100
C       -0.7583600       0.2393500       1.8830800
N       -0.3227400      -0.0549100       2.9226300
N       -0.9828000       0.0591100      -0.5356500
C       -1.9818700       0.0978600      -1.6309200
H        3.6659300      -0.4564800       1.3958400
H        4.4499200      -1.2335100      -0.0302400
H        4.0497800       0.5239300      -0.0613800
H       -2.2215800       1.1497600      -1.8351800
H       -2.8821900      -0.4424500      -1.3149300
H       -1.5584200      -0.3552400      -2.5297100
