20
dipolar_002408 reactant_2 @ TS geom
C       -0.6621300       2.5250200       3.6282800
O       -0.2350100       2.3752500       2.2622400
C        0.7865800       1.5736900       2.0341500
O        1.4783100       1.0831300       2.8919200
C        1.0283500       1.3768100       0.5168300
C        0.6947900       2.6014000      -0.2049100
N        0.4149600       3.5634900      -0.7928700
C        2.3822500      -0.5024900       0.3811500
C        3.7274400      -1.0368100       0.0597300
N        4.7490600      -1.5270500      -0.1979000
C        2.0512100      -1.1084300       1.7045300
N        1.7376600      -1.8522800       2.5395600
N        2.3669800       0.9517400       0.2570000
C        2.9692300       1.4101000      -1.0057000
H        0.1145300       3.0071400       4.2314800
H       -0.9020900       1.5349600       4.0493700
H       -1.5624200       3.1467500       3.5835100
H        3.9762600       0.9687300      -1.1067200
H        3.0736300       2.4912800      -0.9860300
H        2.3610600       1.0957800      -1.8768600
