49
dipolar_002408 TS complex (tags stripped)
C       -0.6621300       2.5250200       3.6282800
O       -0.2350100       2.3752500       2.2622400
C        0.7865800       1.5736900       2.0341500
O        1.4783100       1.0831300       2.8919200
C        1.0283500       1.3768100       0.5168300
C        0.6947900       2.6014000      -0.2049100
N        0.4149600       3.5634900      -0.7928700
C        0.0300600      -0.2112900      -0.2727200
C        1.0236500      -1.0712500      -0.4453400
C        1.3047600      -2.4334600      -1.1105000
C        2.0216000      -2.1891400      -2.4559000
C        0.1522900      -3.4188400      -1.3060200
C       -0.6516900      -3.7924900      -0.0606200
C       -1.4912300      -2.6683100       0.5766600
C       -2.1377500      -1.7186100      -0.4407900
C       -1.4890400      -0.2868100      -0.5694500
C       -2.2598900       0.6237600       0.4343400
F       -3.5901100       0.5318400       0.3136100
F       -1.9553100       0.2617300       1.6933500
F       -1.9623700       1.9183100       0.2835600
C       -1.7678200       0.2188200      -2.0118400
F       -1.2053700      -0.6041900      -2.9125900
F       -1.2651400       1.4423900      -2.2290500
F       -3.0778200       0.2694700      -2.2844100
C        2.3822500      -0.5024900       0.3811500
C        3.7274400      -1.0368100       0.0597300
N        4.7490600      -1.5270500      -0.1979000
C        2.0512100      -1.1084300       1.7045300
N        1.7376600      -1.8522800       2.5395600
N        2.3669800       0.9517400       0.2570000
C        2.9692300       1.4101000      -1.0057000
H        0.1145300       3.0071400       4.2314800
H       -0.9020900       1.5349600       4.0493700
H       -1.5624200       3.1467500       3.5835100
H        2.0441300      -2.9164300      -0.4286000
H        2.4174600      -3.1536000      -2.8669600
H        2.8878700      -1.5111800      -2.3652200
H        1.3339200      -1.7712300      -3.1927100
H       -0.4931100      -3.0686400      -2.1084500
H        0.6124900      -4.3694400      -1.7019200
H        0.0200600      -4.2010300       0.7110900
H       -1.3245600      -4.6172100      -0.3501000
H       -2.2944600      -3.1507700       1.1666100
H       -0.9054600      -2.0958900       1.2865300
H       -3.2312900      -1.5863300      -0.1908400
H       -2.1703800      -2.1850100      -1.4380500
H        3.9762600       0.9687300      -1.1067200
H        3.0736300       2.4912800      -0.9860300
H        2.3610600       1.0957800      -1.8768600
