16
dipolar_000487 reactant_2 @ TS geom
C       -0.5462200      -0.2348100       2.3879200
C       -1.3660100      -1.2371900       3.1420100
N       -0.9341600       0.2920500       1.2618900
N       -1.9712800      -0.1546300       0.5562300
C       -2.4346100       0.6100700      -0.4395700
O       -3.0969100       0.1659100      -1.3766900
O       -2.1731000       1.9407700      -0.2976400
C       -2.7555400       2.8077200      -1.2596700
H        0.4646900      -0.0275300       2.7121000
H       -1.8811600      -0.5784600       3.8483900
H       -0.7666200      -1.9604600       3.7365500
H       -2.1125900      -1.7914700       2.5612800
H       -0.3220000       1.0423300       0.8951900
H       -3.8542600       2.6873800      -1.2589200
H       -2.4862300       3.8077400      -0.9287900
H       -2.3610900       2.5993600      -2.2532100
