21
dipolar_000487 reactant_1 @ TS geom
C        4.0279200       1.6823700       1.5632500
N        3.3252100       0.5885500       0.9177200
C        2.1093500       0.7473800       0.3786000
O        1.4932100       1.8294600       0.4032500
C        1.4810900      -0.4511300      -0.2309000
C        0.5793900      -0.4528400      -1.2369100
C        0.1831200       0.6106900      -2.0777300
N       -0.1326300       1.4498800      -2.8213300
C        0.1095500      -1.9332300      -1.3401300
O        1.3862000      -2.5718500      -1.0868000
C        1.5622000      -1.9373800       0.2114100
C        0.2510900      -2.3657400       0.8685700
C       -0.6530800      -2.3425200      -0.0531900
H        4.9104400       1.2829000       2.0805100
H        4.3568300       2.4395200       0.8334100
H        3.3747000       2.1773700       2.2969600
H        3.7909500      -0.3082300       0.8245400
H       -0.3392200      -2.2275300      -2.2842400
H        2.4557100      -2.2331000       0.7384800
H        0.1734800      -2.7573400       1.9004300
H       -1.7194400      -2.6291100      -0.0683500
