16
dipolar_000487 reactant_2 (FRAG2 relaxed, reordered to d) type=dipole
C       -2.4539100       0.5441900      -0.3151600
C       -3.6818400      -0.0715100       0.2334000
N       -1.2738100       0.1065500      -0.0255700
N       -0.1107200       0.6098700      -0.4849700
C        0.9228400      -0.0908400       0.0282400
O        2.1032400       0.4026500      -0.4253900
O        0.8701900      -1.0542900       0.8062200
C        3.2814200      -0.2501700       0.0424500
H       -2.5025600       1.4010000      -0.9937300
H       -4.2608700       0.6803200       0.7962800
H       -3.4525000      -0.9205700       0.8932600
H       -1.1825400      -0.7027200       0.6148200
H       -4.3297200      -0.4162900      -0.5904400
H        3.2964200      -1.3095300      -0.2573000
H        3.3630400      -0.1891300       1.1387800
H        4.1261300       0.2759600      -0.4202300
