19
dipolar_001197 reactant_1 @ TS geom
N        1.5594500      -1.0285000      -0.3912400
C        2.9286600      -0.8457700      -0.3997600
C        3.7364800      -2.1056700      -0.2602900
O        3.4072500       0.2357700      -0.6959100
N        0.8392900      -1.7010200       0.3965300
C        1.2509200      -2.0665700       1.7786800
N       -0.3844400      -2.0385600       0.1020500
C       -0.7089000      -2.1606700      -1.2647300
C       -2.1906200      -2.2932500      -1.4859900
O        0.1008700      -2.2809800      -2.1700600
H        3.0710800      -2.9340200      -0.6322700
H        4.5889800      -1.9841900      -0.8433200
H        3.9061300      -2.2353200       0.7852300
H        1.7366500      -3.0346300       1.7226400
H        0.3324300      -2.1498000       2.4003000
H        1.9089400      -1.2920400       2.1847700
H       -2.4390600      -2.0125600      -2.5288000
H       -2.4498800      -3.3381000      -1.3325300
H       -2.7672700      -1.6789600      -0.7807300
