18
dipolar_001314 reactant_1 @ TS geom
C        3.7463000      -2.7728200       1.0479600
N        2.7048800      -2.4002100       0.1156100
C        2.4742000      -1.1145200      -0.2268700
O        3.2143900      -0.1889400       0.1327900
C        1.2947300      -0.8847200      -1.1006400
C        1.1895700       0.0923100      -2.1841900
C        2.3905400       0.9500400      -2.4799900
O        0.1566200       0.1769200      -2.8522800
N        0.2109700      -1.5937800      -0.9005400
C       -0.8479500      -2.1341200      -0.6793100
H        3.4628400      -2.5610300       2.0848600
H        4.6670200      -2.2191500       0.8140300
H        3.9404000      -3.8472500       0.9392600
H        2.0375100      -3.1053100      -0.1866800
H        3.2333500       0.2993700      -2.7468600
H        2.7023300       1.5189500      -1.5898400
H        2.1501400       1.6231400      -3.3047200
H       -1.6480600      -2.7095300      -0.6932500
