18
dipolar_001314 reactant_1 (FRAG1 relaxed, reordered to d) type=dipole
C       -0.3976900       2.5897500      -0.8288200
N       -0.3302700       1.4833600      -0.5248300
C       -0.3722000       0.2084200      -0.0985500
O       -2.7001800       0.3954000      -0.2488300
C        0.8952500      -0.4881400       0.1739100
C       -1.9263200      -1.7351300       0.4998600
C       -1.7230200      -0.3142400       0.0326200
O        0.9318500      -1.6910100       0.4820100
N        2.0341800       0.2450800       0.0440300
C        3.3404300      -0.3119100       0.3285300
H       -0.5373000       3.5709800      -1.2720000
H        1.9696300       1.2525800      -0.0470900
H       -1.5119300      -2.4425900      -0.2341100
H        3.3531100      -1.3766600       0.0636500
H       -1.4057600      -1.9268200       1.4482800
H       -3.0051300      -1.9078200       0.6135400
H        3.6146600      -0.2223200       1.3946700
H        4.1010300       0.2101600      -0.2684300
