27
dipolar_001314 reactant_2 (FRAG2 relaxed, reordered to d) type=dipolarophile
C        1.0220500      -1.4454100       0.5234400
C        0.6125200      -0.0236200       0.3966300
O        0.2527100      -2.2780200       1.0442400
N        2.2433100      -1.8096600       0.0960100
C        1.5072200       1.2437900       0.5971100
C       -1.9005300      -0.0895200      -0.3254900
C       -3.3988500      -2.0047400      -0.3918000
C       -0.6083300       0.4828400       0.1244800
C        3.1872400      -1.0223400      -0.6810200
O       -2.6658500       0.6169000      -1.0044100
C       -0.4230500       2.0173200       0.1674100
C        0.4369100       2.4188600      -1.0471900
O        0.5481400       2.1067800       1.2246100
N       -2.1834300      -1.3483200       0.0407900
C        1.6532900       1.9391000      -0.7763200
H        2.4081500       1.1143800       1.2043000
H       -1.3250000       2.6026000       0.3698400
H       -1.4564700      -1.8641100       0.5488200
H        2.4623000      -2.7909100       0.2510800
H       -3.4709100      -2.9825500       0.1001500
H       -3.4151400      -2.1567900      -1.4842400
H       -4.2844500      -1.4071000      -0.1253300
H        2.6778900      -0.4619600      -1.4758700
H        0.0654800       2.9341800      -1.9318300
H        2.5624100       1.9583900      -1.3748900
H        3.7677800      -0.3236300      -0.0594600
H        3.8933100      -1.7123000      -1.1596900
