21
dipolar_000700 reactant_1 (FRAG1 relaxed, reordered to d) type=dipolarophile
C        0.4674500       0.0403900       0.0969600
C        1.8430100      -0.1129300      -0.3805400
C       -0.2812600       2.3703000      -0.7751500
C       -2.2527500      -0.5415400      -0.4180200
C       -1.7281500       0.5631700       0.5249300
C       -0.3975700       1.0678400      -0.0838800
O       -1.2262700      -0.2286000       1.6146600
C       -0.3818400      -1.0573800       0.7939200
C        2.4466800      -1.4899700      -0.2594700
C       -1.4095600      -1.5637000      -0.2424500
O        2.4862600       0.8230100      -0.8604500
H       -1.3727400      -2.5313600      -0.7418200
H        1.7919400      -2.2418000      -0.7301900
H        0.7082300       2.5135300      -1.2228400
H       -1.0588000       2.4423200      -1.5566800
H       -3.0929600      -0.4349600      -1.1030700
H       -2.4356400       1.3326700       0.8532200
H       -0.4825000       3.1940300      -0.0679100
H        0.1537200      -1.8081600       1.3829900
H        2.5352500      -1.7666600       0.8042900
H        3.4392600      -1.5098300      -0.7278800
