23
dipolar_000700 reactant_2 @ TS geom
C       -1.0879500       3.1360900      -1.2161100
C       -1.3316500       2.0373200      -0.2218500
O       -1.6028600       2.2717700       0.9406200
C       -1.1791900       0.6018200      -0.7007000
C       -1.0665200       0.5255600      -2.1431500
N       -1.0121900       0.5654100      -3.3036400
N       -1.7314500      -0.4421100      -0.0316800
C       -2.7481900      -0.2584500       1.0010800
C       -0.8690900      -1.6820700      -0.0479200
C       -0.8267300      -2.2309500      -1.5249100
C       -1.5828300      -2.7816600       0.7735400
H       -0.2150100       2.9383700      -1.8529600
H       -1.9597200       3.2362300      -1.8890700
H       -0.9509600       4.0685100      -0.6631400
H       -3.3084300       0.6631400       0.8174800
H       -2.2973500      -0.1853600       2.0171100
H       -3.4557900      -1.0922500       0.9915800
H       -0.4648400      -3.2456200      -1.4863000
H       -0.0926000      -1.6294300      -2.1009500
H       -1.7816900      -2.2173600      -2.0870200
H       -2.5984800      -3.1308200       0.3631100
H       -0.9453600      -3.6377800       0.7563900
H       -1.7823900      -2.4701400       1.8042300
