11
dipolar_000034 reactant_2 (FRAG2 relaxed, reordered to d) type=dipole
C        0.5182700       0.1864200       0.0523700
C        0.7318800       1.5563500       0.3009100
N        0.9214700       2.6918800       0.5073100
C        1.5863200      -0.7243500      -0.0648500
N        2.4808800      -1.4717800      -0.1602800
N       -0.7558000      -0.2708600      -0.0783300
C       -1.8409500      -0.6628200      -0.1910200
C       -3.1910600      -1.1454200      -0.3242200
H       -3.8668400      -0.3913000       0.1114700
H       -3.3009000      -2.0848700       0.2401600
H       -3.4475400      -1.3032100      -1.3830800
