23
dipolar_001374 reactant_1 (FRAG1 relaxed, reordered to d) type=dipole
C        1.0653500       0.2217100      -0.4112800
N        2.2854900      -0.3498200      -0.4386800
C       -1.7173400       1.0515400       0.3701300
O        0.8646500       1.4108400      -0.7255700
C       -0.0548500      -0.6573900      -0.0488300
C       -0.8927300       2.0310100       0.9900300
C       -3.1667800       1.3124000       0.1947900
O       -1.2891700      -0.1207800       0.0527800
O        0.9931200      -2.7494200      -0.2075300
C       -0.0633400      -2.1005800      -0.1020400
C       -1.3919400      -2.8080800       0.0170300
C        3.4316300       0.3525300      -0.9757800
N       -0.3806800       2.8547800       1.6372300
H        3.3812300       0.4583700      -2.0736400
H       -3.3198800       1.9969000      -0.6588900
H       -3.6897400       0.3685200      -0.0093400
H        2.2973300      -1.3663400      -0.3272100
H       -3.5847800       1.8020900       1.0878200
H       -1.8317300      -2.6350700       1.0122700
H        3.4983900       1.3614000      -0.5438900
H       -1.2323400      -3.8841400      -0.1275900
H        4.3430700      -0.2028700      -0.7207100
H       -2.1112500      -2.4315800      -0.7263000
