41
dipolar_001374 TS complex (tags stripped)
C       -3.2231900      -0.4358700       2.8930000
N       -2.6162600      -0.2680200       1.5855100
C       -1.8806700       0.8057300       1.2770800
O       -1.7532500       1.8054900       1.9804600
C       -1.1296800       0.6820100      -0.0566600
C       -0.6174300       1.9589700      -0.7335800
C        0.0304500       3.0156800       0.0918100
O       -0.8214300       2.0617600      -1.9233600
O       -1.6082800      -0.2951900      -0.7849200
C       -0.7652200      -1.0974000      -1.6435700
C       -1.6562800      -2.2800100      -2.0641200
C       -0.2867200      -0.3964800      -2.8623500
N        0.2220500      -0.0726500      -3.8547100
C        0.5650800      -1.5449700      -0.7400000
F        1.6359000      -1.8279000      -1.5958100
F        0.3051800      -2.7834500      -0.1690700
C        0.9492300      -0.5152000       0.2998800
C        2.0476700       0.4370300      -0.0651000
O        2.9365300       0.8351200       0.6593200
O        1.9113600       0.8263000      -1.3358600
C        2.8460000       1.7684000      -1.8677600
C        0.6213800      -0.7242800       1.7286600
O        0.0113100      -1.6785400       2.1831600
O        0.9716000       0.3299700       2.4828700
C        0.6027200       0.2997100       3.8650900
H       -4.1436200      -1.0251600       2.8108000
H       -2.5285900      -0.9626200       3.5762700
H       -3.4549300       0.5447900       3.3241400
H       -2.5687600      -1.0778400       0.9768200
H        0.6462000       3.6296000      -0.5704900
H        0.5987000       2.5971900       0.9183900
H       -0.7630600       3.6566100       0.5361500
H       -1.0232600      -2.9665500      -2.6115500
H       -2.5540600      -2.0535300      -2.7129800
H       -2.0331700      -2.7540700      -1.1431400
H        3.8532600       1.3422400      -1.8913400
H        2.4884200       1.9789000      -2.8834000
H        2.8409100       2.6882600      -1.2639700
H        1.0034400      -0.5930000       4.3518600
H        1.0389200       1.2066700       4.2999100
H       -0.4931700       0.3268600       3.9706900
