20
dipolar_002192 reactant_1 @ TS geom
C       -1.3623400       1.9992000       4.2060300
O       -1.3127800       1.2411700       2.9814600
C       -0.5482900       0.1617800       2.9708000
O        0.0085300      -0.3253300       3.9234700
C       -0.4488100      -0.3939900       1.5465500
O       -0.0499800      -1.7445100       1.5258100
C       -0.5621000      -2.3044400       0.3943500
O       -0.3078200      -3.4193700       0.0323400
C       -1.3921700      -1.2054200      -0.1841900
C       -2.4621900      -1.3850800      -1.2159800
O       -2.5240600      -2.3554300      -1.9353900
O       -3.2611700      -0.3293500      -1.2600400
C       -4.1984600      -0.2775300      -2.3501600
O       -1.6462300      -0.3595100       0.8449600
H       -1.7598900       1.4045400       5.0299600
H       -2.0182200       2.8607900       3.9976400
H       -0.3483700       2.3632700       4.4592100
H       -4.7325600       0.6731100      -2.2398000
H       -3.6431300      -0.2875300      -3.3072100
H       -4.8882000      -1.1207600      -2.3143400
