20
dipolar_002192 reactant_1 (FRAG1 relaxed, reordered to d) type=dipole
C       -2.4528100      -0.0328600      -0.2092100
O       -2.6172900       1.2875800      -0.3599600
C       -1.0650100      -0.4051800      -0.0527700
O        0.9840800      -1.3156200       0.2113800
C        1.0711100      -0.0451900       0.0897300
O        3.3753200      -0.0276100       0.3040600
C        2.3347200       0.7579900       0.1224500
O        2.3247400       1.9585000      -0.0045200
C       -0.5091900      -1.6779400       0.1240500
C        4.6662700       0.6147600       0.3649500
O       -0.0593500       0.5527800      -0.0659900
O       -0.8321800      -2.8261900       0.2146100
C       -3.9673200       1.7464500      -0.5221800
O       -3.3627500      -0.8463000      -0.2028400
H       -4.5711100       1.4890900       0.3601000
H       -4.4217700       1.3004800      -1.4187000
H       -3.9027500       2.8350000      -0.6322900
H        4.8628100       1.1456700      -0.5767300
H        4.6901300       1.3213000       1.2061800
H        5.3912500      -0.1918000       0.5145400
