28
dipolar_002192 reactant_2 (FRAG2 relaxed, reordered to d) type=dipolarophile
C        0.1139100      -0.8527800       0.2853000
C       -0.7400900      -0.2863600      -1.8860400
C        0.1295900       0.9852600      -1.9356400
O        1.0665800      -1.9441100      -1.5054400
C       -0.1711700       2.1213500      -0.9179000
O       -1.1560200      -2.4481100      -1.0113000
C        1.0876900      -2.4102800      -2.8513500
C        0.3343200       0.0321600       1.0831100
C       -0.1718000      -1.4476800      -1.0398300
C        0.4698000       1.4131000       1.5132300
C       -0.8361300      -3.5856400      -0.2199500
C        0.7587000       2.2942000       0.2963300
F        1.4585000       1.5829800       2.4470600
Cl      -1.0940500       1.9324200       2.3209100
H       -0.1103500       3.0724200      -1.4673200
H       -0.0090200       1.4145400      -2.9389100
H        1.1941600       0.7022900      -1.8832300
H       -0.8960900      -0.6818000      -2.9005400
H        1.1280900      -1.5765800      -3.5717100
H       -1.7378900      -0.0594900      -1.4819900
H        1.8005100       2.0714100       0.0122500
H        0.7313500       3.3354200       0.6522500
H        1.9993600      -3.0141600      -2.9576700
H       -0.5956700      -3.2915900       0.8175500
H       -1.2149800       2.0508300      -0.5693600
H        0.0166300      -4.1456900      -0.6354500
H       -1.7253100      -4.2299600      -0.2134100
H        0.2137200      -3.0416900      -3.0753200
