12
dipolar_000027 reactant_1 (FRAG1 relaxed, reordered to d) type=dipole
C       -0.7846900      -0.2909800      -0.7622400
O        1.5156900      -0.0730300      -0.6992500
C        0.3876200       0.0468800       0.0297300
O        0.3783300       0.3931300       1.2022500
C        2.7419400       0.2318400      -0.0273700
N       -1.9540300      -0.2115800      -0.2051000
C       -2.9864200      -0.2389500       0.4023900
H       -0.7067900      -0.6134600      -1.8015600
H       -3.7380000       0.5485900       0.5378500
H        2.8973000      -0.4432600       0.8274900
H        2.7436900       1.2725200       0.3297500
H        3.5379400       0.0882100      -0.7678100
