29
dipolar_000027 TS complex (tags stripped)
C        4.0318700       0.2885600       0.5853200
O        3.0238200       0.4009600      -0.4230200
C        2.1494900      -0.6276300      -0.5131800
O        2.1778200      -1.5907000       0.2439500
C        1.2137200      -0.4287500      -1.6042300
N        0.2128200      -1.2535800      -1.6470300
C       -0.7144600      -2.0462100      -1.5344100
C       -1.3734000      -0.5939800       0.8458500
C       -2.6669500      -0.0390600       0.2760400
C       -3.2030100       0.8210800       1.4677000
C       -2.1594000       1.9785500       1.5492000
C       -1.1680600       1.6370700       0.3898300
C       -2.1441100       1.0709000      -0.6616300
C       -0.4812400       0.3641900       0.8721900
H        4.6427400      -0.6155200       0.4304900
H        4.6603200       1.1822200       0.4871900
H        3.5880500       0.2522000       1.5908500
H        1.2234700       0.4500000      -2.2224300
H       -1.1982800      -2.8863900      -1.5732800
H       -1.2590100      -1.6423400       1.1743000
H       -3.4006600      -0.7428400      -0.1793700
H       -4.1829400       1.1708700       1.2734400
H       -3.2103200       0.1749200       2.3776400
H       -2.6142900       2.9220900       1.3975700
H       -1.6022800       1.9772400       2.5122400
H       -0.5167900       2.4663300       0.0653100
H       -1.6679000       0.7150600      -1.5923600
H       -2.9366900       1.8089500      -0.9423800
H        0.5143000       0.3236500       1.3035900
