23
dipolar_001462 reactant_2 (FRAG2 relaxed, reordered to d) type=dipolarophile
C       -0.0969600      -1.5296800       0.6230000
C        2.7450000      -1.1482000      -0.5348700
N       -0.5503500       3.1781200      -0.5093100
C       -1.0148600      -1.9642900      -0.5689900
C       -2.1637200      -0.9198500      -0.5234600
C       -1.7714800      -0.0169400       0.6923400
C       -1.1529700      -1.0598000       1.6456400
C        0.5015300      -0.1996300       0.2060800
C       -0.5090900       0.7122600       0.2529400
C        1.8616400       0.0483300      -0.3285500
C       -0.4859600       2.0615600      -0.1818400
O        2.2316000       1.1891500      -0.5847800
H       -1.3885200      -2.9827600      -0.3900400
H       -0.4687100      -1.9657900      -1.5224100
H       -2.2566000      -0.3353000      -1.4491200
H       -3.1344900      -1.3954500      -0.3225400
H       -2.5751700       0.6245600       1.0705300
H       -0.7104200      -0.6107800       2.5466400
H       -1.8612000      -1.8517100       1.9300500
H        0.6201500      -2.2913000       0.9470600
H        2.9343500      -1.6408100       0.4332400
H        3.6958400      -0.8433900      -0.9900800
H        2.2369100      -1.8893600      -1.1731600
