11
dipolar_000339 reactant_1 (FRAG1 relaxed, reordered to d) type=dipolarophile
C        1.9219000      -0.2278800      -0.5526400
C        0.7000600       0.2804900      -0.7556700
C       -0.4270700       0.0111300       0.1826300
C       -1.7454500       0.6439200      -0.1659200
O       -0.2842200      -0.6860200       1.1810000
H        2.1207300      -0.8597600       0.3187300
H        2.7489100      -0.0317400      -1.2400900
H        0.4865900       0.9131300      -1.6222200
H       -1.6264000       1.7390100      -0.2236400
H       -2.0643900       0.3098600      -1.1675800
H       -2.5093600       0.3864800       0.5790700
