25
dipolar_000339 reactant_2 (FRAG2 relaxed, reordered to d) type=dipole
C       -3.7032800      -0.2035800      -2.0902800
N       -2.5572300      -0.2262600      -1.2058300
C       -2.6888700      -0.5220400       0.1101300
O       -0.3265800      -0.1142100       0.3153200
C       -1.4928100      -0.4623400       0.9314200
C       -1.5032100      -0.7461900       2.2988300
N       -1.4693200      -0.9765500       3.4481200
O       -3.7838900      -0.8415900       0.6143200
C        1.7898000       0.5892500      -1.4194100
C        1.9442000       0.3746400      -0.0285600
C        2.8940400       0.9268400      -2.1912500
C        4.1596100       1.0552000      -1.5978200
C        4.3204600       0.8452000      -0.2231900
C        3.2220700       0.5067800       0.5617700
C        0.8472200       0.0174300       0.8147500
H       -4.2658500      -1.1478700      -2.0325700
H       -4.4001300       0.6171200      -1.8474600
H       -3.3528200      -0.0680500      -3.1211400
H       -1.6580200       0.0858800      -1.5551200
H        0.8037800       0.4849700      -1.8759300
H        2.7765000       1.0916600      -3.2642900
H        5.0229800       1.3194900      -2.2125100
H        5.3065800       0.9457400       0.2346400
H        3.3355800       0.3393700       1.6351800
H        0.9835100      -0.1561100       1.8884000
