11
dipolar_000339 reactant_1 @ TS geom
C        0.7783600       1.3141800       0.7351000
C       -0.4755200       1.7995200       0.2224900
C       -1.6948500       1.9124300       1.0560000
C       -2.8697100       2.6435800       0.4564500
O       -1.7532400       1.4121300       2.1823100
H        1.6967200       1.8478000       0.3328200
H        0.8307600       1.2967000       1.8872200
H       -0.4648200       2.4472400      -0.6794700
H       -2.7165000       3.7279400       0.5350800
H       -2.9629500       2.4095100      -0.6190200
H       -3.7994400       2.3720200       0.9829400
