36
dipolar_000339 TS complex (tags stripped)
C       -4.2870500      -0.8873300       0.8836600
N       -3.3097600      -0.5255500      -0.1315300
C       -2.0017200      -0.7548100       0.0739100
O       -1.5869500      -1.4597600       0.9946900
C       -1.0424800      -0.0418200      -0.8577600
C       -1.5246800       0.3460300      -2.1558900
N       -1.9306600       0.7445200      -3.1720100
O        0.2312200      -0.4708800      -0.9173400
C        0.9728000      -0.3263400       0.2652200
C        2.3937400      -0.7410700       0.0598600
C        3.1416500      -1.1133400       1.1874200
C        4.5142800      -1.3467700       1.0824000
C        5.1513300      -1.2305000      -0.1570600
C        4.4044200      -0.8981900      -1.2930000
C        3.0323300      -0.6516400      -1.1886800
C        0.7783600       1.3141800       0.7351000
C       -0.4755200       1.7995200       0.2224900
C       -1.6948500       1.9124300       1.0560000
C       -2.8697100       2.6435800       0.4564500
O       -1.7532400       1.4121300       2.1823100
H       -4.0337700      -0.3931000       1.8453700
H       -4.3167700      -1.9698000       1.0607700
H       -5.2749200      -0.5477900       0.5640300
H       -3.6034900       0.0972400      -0.8703100
H        0.4601400      -0.8544400       1.1049200
H        2.6267600      -1.2170500       2.1448100
H        5.0832100      -1.6004800       1.9772400
H        6.2279700      -1.3856700      -0.2281900
H        4.9118600      -0.8024600      -2.2628600
H        2.4609500      -0.4076100      -2.0940600
H        1.6967200       1.8478000       0.3328200
H        0.8307600       1.2967000       1.8872200
H       -0.4648200       2.4472400      -0.6794700
H       -2.7165000       3.7279400       0.5350800
H       -2.9629500       2.4095100      -0.6190200
H       -3.7994400       2.3720200       0.9829400
