14
dipolar_001402 reactant_1 (FRAG1 relaxed, reordered to d) type=dipole
C       -1.8425800       0.9536500       0.4304600
C       -3.1737700       0.3866900       0.0163500
O       -1.2183000      -1.8786000      -1.1615200
C       -0.6786400       0.1736000       0.0553000
O        0.5772700       0.6449700       0.4088100
C        1.4613700      -0.1932100      -0.0166000
C        2.8488800       0.0231400       0.1981900
N        3.9857200       0.1869000       0.3666100
O        0.9817800      -1.2105900      -0.6338500
C       -0.5454000      -1.0422700      -0.6360000
O       -1.7191300       2.0090900       1.0471300
H       -3.9736000       1.0525200       0.3645200
H       -3.3121600      -0.6207600       0.4400500
H       -3.2222000       0.2842300      -1.0796600
