34
dipolar_001402 TS complex (tags stripped)
C        0.0705500      -2.1135100       3.1298300
C        0.9929400      -1.0655300       2.5700000
O        1.4151200      -0.1127400       3.2300000
C        1.4340200      -1.2131000       1.2012400
O        0.9104900      -2.1840100       0.3715200
C        1.4669800      -2.0923700      -0.7852500
C        1.0895900      -2.9228800      -1.8752300
N        0.8408100      -3.6508700      -2.7525000
O        2.2546100      -1.0807800      -0.8951800
C        2.2994300      -0.3957300       0.4538500
O        2.9819300       0.5859600       0.5870600
C       -0.5191600      -0.0743200      -1.2697900
C       -0.5188600       0.4757500      -0.2111100
C       -0.6245200       1.5147900       0.7836800
Br      -1.9201300       0.9476200       2.2043100
C       -1.1878000       2.7058700      -0.0138100
C       -0.2570500       3.2890800      -1.0975500
C        0.2892000       2.4308500      -2.2643400
C       -0.7001700       1.5235300      -3.0378200
C       -0.5050200       0.0404400      -2.7276700
F       -1.4953600      -0.7262100      -3.2879300
F        0.6702500      -0.4107600      -3.2859600
H        0.6237200      -3.0716400       3.1459200
H       -0.2173300      -1.8382800       4.1482800
H       -0.8151700      -2.2577800       2.5001500
H        0.3087000       1.7574300       1.3191400
H       -2.1233400       2.3285800      -0.4996700
H       -1.4553200       3.4656000       0.6793800
H        0.6096500       3.7405100      -0.5849800
H       -0.8276500       4.1212500      -1.5273900
H        1.1539800       1.8334700      -1.9118000
H        0.7150200       3.1349600      -2.9897400
H       -0.6150500       1.6111300      -4.0879500
H       -1.7440400       1.7348400      -2.7260200
