29
dipolar_001703 reactant_1 (FRAG1 relaxed, reordered to d) type=dipole
C       -1.5090200      -0.5998200      -0.2040800
N       -2.6932000      -0.6833100      -0.8283100
C       -0.7728900       0.6725800      -0.3631800
O        0.4348500       0.7848800       0.1660200
C        1.3143400      -0.1185100       0.4881100
C        1.2993000      -1.4790000      -0.1532300
C        1.7204300      -2.6699400       0.6455700
O       -1.0537900      -1.5000600       0.5263500
O        1.0536200      -1.5209100      -1.3499900
C       -1.3433500       1.9495800      -0.7825700
C       -0.5006200       3.1858300      -0.6102900
C        2.4502600       1.8585500       1.6250000
O       -2.4670500       2.0022800      -1.2976900
C        2.4686100       0.4042000       1.2404400
C       -3.5845000      -1.8051200      -0.6187600
O        3.3894800      -0.3512800       1.5412700
H        1.5987500       2.0665300       2.2920100
H       -0.1600200       3.2881400       0.4311200
H        3.3903600       2.1033300       2.1347300
H        1.3880400      -2.5888900       1.6891700
H        1.3186500      -3.5770900       0.1742800
H       -3.0147500      -2.7445500      -0.6311000
H       -3.0291400       0.1786700      -1.2647300
H        2.3267800       2.4934800       0.7340600
H        0.3991500       3.1250100      -1.2428800
H       -1.0941800       4.0614000      -0.9012000
H       -4.3297500      -1.8249700      -1.4238700
H       -4.1119700      -1.7386100       0.3481700
H        2.8207600      -2.7224200       0.6449200
