19
dipolar_001703 reactant_2 (FRAG2 relaxed, reordered to d) type=dipolarophile
C       -0.0418600       0.3140000      -0.2584000
C       -0.6879600      -1.0927700      -0.2005500
O       -1.7985100      -0.8781700      -1.0927900
O        2.1143200      -0.4417300       0.1619200
C       -1.4347200      -1.1912700       1.1497400
C        1.3750900       0.6481700      -0.1028500
C       -1.0762400       1.1627300      -0.3669700
C       -2.3247100       0.2598600      -0.3808700
C        3.5205900      -0.2369200       0.3463900
O        1.8471700       1.7690400      -0.1935700
C       -2.4576700      -0.3393200       1.0403000
H       -1.1164700      -1.7957800       1.9983000
H       -3.2079800      -0.0466900       1.7737500
H       -0.0650500      -1.9393400      -0.5039800
H        3.7045500       0.4369000       1.1960600
H       -1.0702700       2.2521100      -0.3739400
H       -3.2291100       0.6632700      -0.8480000
H        3.9702800       0.1926100      -0.5608200
H        3.9474300      -1.2261200       0.5486400
