21
dipolar_000205 reactant_1 (FRAG1 relaxed, reordered to d) type=dipole
C        1.4251700      -0.2747800       0.4102600
C       -1.1791100      -0.0078300      -1.5832500
C       -0.9489200       0.2269700      -0.1431900
O       -0.2510500      -0.3986300      -2.2921200
N        0.2969400      -0.0179400       0.2394300
C       -1.9068000       0.6830700       0.8693200
C       -1.3849400       0.8406600       2.2782600
C       -2.5488800       0.2372600      -2.1512900
O       -3.0798200       0.9260700       0.5903100
C        2.8102200      -0.6228200       0.6491600
C        3.5631700      -1.0436200      -0.5774200
O        3.2690600      -0.5485300       1.7779900
H       -2.5235300       0.0291600      -3.2290900
H       -2.8653200       1.2748800      -1.9696700
H       -3.2913900      -0.4077500      -1.6579800
H       -0.5528800       1.5626100       2.3065200
H       -2.1983100       1.1902300       2.9264000
H       -0.9972500      -0.1184600       2.6575500
H        2.8947200      -1.2167600      -1.4321200
H        4.1400300      -1.9519300      -0.3464000
H        4.2754000      -0.2414700      -0.8343900
