23
dipolar_000853 reactant_2 @ TS geom
C       -2.1612400       0.7327100      -1.0657400
C       -1.5354100       1.6201100      -2.1083000
C       -3.2498400       1.3785300      -0.2539400
N       -1.8031700      -0.4996100      -0.8299800
C       -2.7693300      -1.3094100      -0.0459100
C       -0.6536400      -1.2064300      -1.3175900
C        0.1915500      -0.6136300      -2.2825300
N        0.9349300      -0.2351800      -3.1057200
C       -0.1101500      -2.4594500      -0.8507700
C       -0.7495700      -3.4156200       0.1442000
O        0.9979800      -2.8248500      -1.3157700
H       -0.4580900       1.6560900      -2.2278200
H       -2.0019400       1.2209000      -3.0065100
H       -1.8879900       2.6643800      -1.9690100
H       -3.0525200       2.4796500      -0.1140600
H       -4.1173900       1.2668800      -0.8464800
H       -3.4010500       0.9742300       0.7650300
H       -3.7667200      -0.8970500      -0.2448300
H       -2.5479300      -1.2871500       1.0090400
H       -2.7664700      -2.3256200      -0.4408000
H       -1.0887500      -2.9319100       1.0686000
H        0.0082500      -4.1752200       0.3998500
H       -1.5987400      -3.9247000      -0.3212600
