23
dipolar_000853 reactant_2 (FRAG2 relaxed, reordered to d) type=dipole
C       -1.5184900      -1.1043100       1.3395800
C       -1.6627100      -0.4835700       0.0006000
C        0.5590500       0.4063900       0.0926500
N       -0.7545100       0.3308100      -0.4762700
C        1.3329500      -0.7870600       0.1910100
C       -0.9626800       1.0565700      -1.7398000
C       -2.8953800      -0.7815600      -0.7846600
N        1.4517800       2.7740700       0.5830600
C        1.0556300       1.6924700       0.3632800
C        2.7456500      -0.6804800       0.7269100
O        0.8923200      -1.9087800      -0.1418700
H       -3.6029400       0.0621500      -0.7003500
H       -3.3882000      -1.6746300      -0.3809900
H       -2.5091000      -1.1662000       1.8136200
H       -0.8137900      -0.5510800       1.9740700
H       -1.1355600      -2.1314600       1.2217200
H        2.8046900      -1.2461200       1.6712700
H        3.4324000      -1.1650000       0.0154500
H        3.0794100       0.3489600       0.9095800
H       -0.6744800       0.4141400      -2.5849000
H       -0.3217400       1.9454000      -1.7344100
H       -2.0069100       1.3698200      -1.8447600
H       -2.6785900      -0.9323200      -1.8514000
