42
dipolar_000853 TS complex (tags stripped)
C        2.3744200      -2.3660200       2.1089300
O        2.0494400      -1.2337500       1.2957600
C        0.8236600      -0.7136400       1.4443000
O       -0.0113800      -1.1619000       2.2138400
C        0.6650200       0.4940600       0.6472000
C        1.8144200       1.2462600      -0.0530800
C        2.3705100       2.1857500       1.0576800
C        1.4270500       3.1125700       1.2390800
C        0.3036500       2.7299000       0.2308000
O        1.0835100       2.2003800      -0.8400900
C       -0.2060000       1.4411200       0.8668800
F       -1.2538500       1.4462700       1.7119800
C       -2.1612400       0.7327100      -1.0657400
C       -1.5354100       1.6201100      -2.1083000
C       -3.2498400       1.3785300      -0.2539400
N       -1.8031700      -0.4996100      -0.8299800
C       -2.7693300      -1.3094100      -0.0459100
C       -0.6536400      -1.2064300      -1.3175900
C        0.1915500      -0.6136300      -2.2825300
N        0.9349300      -0.2351800      -3.1057200
C       -0.1101500      -2.4594500      -0.8507700
C       -0.7495700      -3.4156200       0.1442000
O        0.9979800      -2.8248500      -1.3157700
H        2.2723500      -2.1095100       3.1771100
H        3.4120800      -2.6128800       1.8778000
H        1.7137600      -3.2053500       1.8704200
H        2.5273200       0.6653800      -0.6567400
H        3.2507600       1.9915700       1.6231000
H        1.2973900       3.8783300       1.9662500
H       -0.4003900       3.5003800      -0.1300600
H       -0.4580900       1.6560900      -2.2278200
H       -2.0019400       1.2209000      -3.0065100
H       -1.8879900       2.6643800      -1.9690100
H       -3.0525200       2.4796500      -0.1140600
H       -4.1173900       1.2668800      -0.8464800
H       -3.4010500       0.9742300       0.7650300
H       -3.7667200      -0.8970500      -0.2448300
H       -2.5479300      -1.2871500       1.0090400
H       -2.7664700      -2.3256200      -0.4408000
H       -1.0887500      -2.9319100       1.0686000
H        0.0082500      -4.1752200       0.3998500
H       -1.5987400      -3.9247000      -0.3212600
