28
dipolar_002757 reactant_1 (FRAG1 relaxed, reordered to d) type=dipole
C        0.2254000       0.2200000       0.1682800
C        1.0007600      -1.0331900       0.1365800
O        0.4978200      -2.1334400       0.4480900
N        2.2995200      -0.9354800      -0.2264300
C        3.1862000      -2.0759800      -0.1649500
C        0.7810200       1.5165900      -0.1014300
O        1.9665300       1.7604300      -0.3553100
O       -0.1465800       2.5055400      -0.1039000
C        0.3334000       3.8361200      -0.3078100
N       -1.0986500       0.1228300       0.6219500
C       -1.9082000      -0.8098300       0.1581100
C       -1.5921300      -1.4265000      -1.0902600
C       -3.1752200      -1.2021000       0.8407600
C       -1.5434400       0.9134500       1.7858100
N       -1.4548500      -1.9162900      -2.1371200
H        2.6673700       0.0064400      -0.3566700
H        2.7300200      -2.9487800      -0.6550900
H        3.4312600      -2.3656700       0.8723100
H        4.1214600      -1.8293400      -0.6842700
H        0.8166400       3.9330700      -1.2912500
H       -0.5491100       4.4856500      -0.2599800
H        1.0512400       4.1209000       0.4760100
H       -2.4653000       1.4579300       1.5450900
H       -0.7518600       1.6099000       2.0650100
H       -3.8641100      -0.3437000       0.8982200
H       -2.9679200      -1.5337700       1.8712700
H       -1.7333800       0.2259200       2.6221500
H       -3.6673400      -2.0144400       0.2940700
