28
dipolar_002757 reactant_1 @ TS geom
C       -6.6403300     -11.0751500       2.4889500
C       -8.1400200     -10.9893200       2.4110500
O       -8.8221900     -11.2105000       1.4158400
N       -8.6711200     -10.5767300       3.5822900
C      -10.0934000     -10.4357200       3.7635100
C       -5.9487800      -9.9764000       1.8146000
O       -6.4982100      -8.8914700       1.6282600
O       -4.7045300     -10.2340200       1.3970200
C       -4.0008500      -9.1681600       0.7479500
N       -6.0240900     -11.9406800       3.3247100
C       -4.6282300     -11.6465700       3.7356700
C       -6.5978600     -13.0543100       3.8615300
C       -7.9545100     -13.5879000       3.4742100
C       -5.9159300     -13.7474100       4.8715500
N       -5.4299300     -14.4082900       5.7182000
H       -8.0025600     -10.4279300       4.3286400
H      -10.2403800     -10.1700000       4.8048400
H      -10.5922600     -11.3724700       3.5269000
H      -10.4730800      -9.6435300       3.1121300
H       -3.8799500      -8.3127200       1.4387400
H       -3.0166600      -9.5650300       0.4692000
H       -4.5365300      -8.8286100      -0.1524200
H       -4.4996300     -10.5484000       3.8167000
H       -3.9527000     -12.0522700       2.9993800
H       -4.4505800     -12.0741700       4.7226100
H       -7.9912900     -14.6870900       3.6295600
H       -8.2748800     -13.4013300       2.4433100
H       -8.6471300     -13.1268400       4.1702400
