33
dipolar_002757 reactant_2 @ TS geom
C       -2.8329700     -12.2312300      -2.8826100
N       -4.1779000     -12.4264600      -2.3883300
C       -4.4293700     -12.5495400      -1.0758700
O       -3.5320800     -12.5597700      -0.2344000
C       -5.9283600     -12.7158100      -0.7038600
Br      -6.7444600     -10.8844100      -1.1547400
C       -6.7162000     -13.7164100      -1.5735800
C       -6.1248700     -15.1249100      -1.7413800
C       -6.0522900     -16.0892300      -0.5442200
C       -4.8175900     -15.9648400       0.3744800
C       -5.0857300     -15.3562800       1.7881300
C       -3.7402900     -15.1262700       2.4950800
C       -5.9725300     -16.3067200       2.6036900
C       -5.6960400     -14.0801100       1.3767900
C       -5.9963900     -13.1671900       0.6595300
H       -2.4442100     -11.2486800      -2.5823400
H       -2.1676100     -13.0067700      -2.4782200
H       -2.8648700     -12.3014000      -3.9661000
H       -4.9686300     -12.3429800      -3.0077100
H       -6.8426700     -13.2713200      -2.5319400
H       -7.7294100     -13.7824600      -1.1017100
H       -6.7822700     -15.5820100      -2.4964100
H       -5.1389100     -15.0397900      -2.1974000
H       -6.0418300     -17.1018300      -0.9536600
H       -6.9916300     -16.0175700       0.0438000
H       -4.3516900     -16.8989500       0.5422900
H       -4.0786000     -15.2881500      -0.1189100
H       -3.8688400     -14.7053700       3.5008700
H       -3.2236800     -16.0788100       2.5736700
H       -3.1165800     -14.4261000       1.9081900
H       -6.0864700     -15.9885900       3.6389000
H       -6.9729600     -16.4185700       2.1563000
H       -5.4842600     -17.2893300       2.5990600
