61
dipolar_002757 TS complex (tags stripped)
C       -2.8329700     -12.2312300      -2.8826100
N       -4.1779000     -12.4264600      -2.3883300
C       -4.4293700     -12.5495400      -1.0758700
O       -3.5320800     -12.5597700      -0.2344000
C       -5.9283600     -12.7158100      -0.7038600
Br      -6.7444600     -10.8844100      -1.1547400
C       -6.7162000     -13.7164100      -1.5735800
C       -6.1248700     -15.1249100      -1.7413800
C       -6.0522900     -16.0892300      -0.5442200
C       -4.8175900     -15.9648400       0.3744800
C       -5.0857300     -15.3562800       1.7881300
C       -3.7402900     -15.1262700       2.4950800
C       -5.9725300     -16.3067200       2.6036900
C       -5.6960400     -14.0801100       1.3767900
C       -5.9963900     -13.1671900       0.6595300
C       -6.6403300     -11.0751500       2.4889500
C       -8.1400200     -10.9893200       2.4110500
O       -8.8221900     -11.2105000       1.4158400
N       -8.6711200     -10.5767300       3.5822900
C      -10.0934000     -10.4357200       3.7635100
C       -5.9487800      -9.9764000       1.8146000
O       -6.4982100      -8.8914700       1.6282600
O       -4.7045300     -10.2340200       1.3970200
C       -4.0008500      -9.1681600       0.7479500
N       -6.0240900     -11.9406800       3.3247100
C       -4.6282300     -11.6465700       3.7356700
C       -6.5978600     -13.0543100       3.8615300
C       -7.9545100     -13.5879000       3.4742100
C       -5.9159300     -13.7474100       4.8715500
N       -5.4299300     -14.4082900       5.7182000
H       -2.4442100     -11.2486800      -2.5823400
H       -2.1676100     -13.0067700      -2.4782200
H       -2.8648700     -12.3014000      -3.9661000
H       -4.9686300     -12.3429800      -3.0077100
H       -6.8426700     -13.2713200      -2.5319400
H       -7.7294100     -13.7824600      -1.1017100
H       -6.7822700     -15.5820100      -2.4964100
H       -5.1389100     -15.0397900      -2.1974000
H       -6.0418300     -17.1018300      -0.9536600
H       -6.9916300     -16.0175700       0.0438000
H       -4.3516900     -16.8989500       0.5422900
H       -4.0786000     -15.2881500      -0.1189100
H       -3.8688400     -14.7053700       3.5008700
H       -3.2236800     -16.0788100       2.5736700
H       -3.1165800     -14.4261000       1.9081900
H       -6.0864700     -15.9885900       3.6389000
H       -6.9729600     -16.4185700       2.1563000
H       -5.4842600     -17.2893300       2.5990600
H       -8.0025600     -10.4279300       4.3286400
H      -10.2403800     -10.1700000       4.8048400
H      -10.5922600     -11.3724700       3.5269000
H      -10.4730800      -9.6435300       3.1121300
H       -3.8799500      -8.3127200       1.4387400
H       -3.0166600      -9.5650300       0.4692000
H       -4.5365300      -8.8286100      -0.1524200
H       -4.4996300     -10.5484000       3.8167000
H       -3.9527000     -12.0522700       2.9993800
H       -4.4505800     -12.0741700       4.7226100
H       -7.9912900     -14.6870900       3.6295600
H       -8.2748800     -13.4013300       2.4433100
H       -8.6471300     -13.1268400       4.1702400
