23
dipolar_000279 reactant_1 (FRAG1 relaxed, reordered to d) type=dipolarophile
C       -0.3095900      -1.5765400      -0.3938300
C        0.4626500      -0.2860800      -0.1965500
C       -0.4348900       0.7288300      -0.3348900
O        2.3926200       0.9693000       0.3004900
C       -1.7963400       0.1080700      -0.6165300
C       -2.2241100      -0.5625600       0.7304500
C       -1.2049900      -1.7249600       0.8821100
C        1.8693400      -0.1385200       0.2456300
C       -1.3581000      -1.1253000      -1.4325700
C        2.6044500      -1.3943600       0.6153700
C       -0.2293200       2.1111800      -0.0957500
N       -0.1425800       3.2608300       0.0740100
H       -0.9163200      -0.8637500      -2.4050400
H       -2.1691000      -1.8548600      -1.5725800
H       -2.5388200       0.7858600      -1.0521600
H       -3.2535300      -0.9373300       0.6368600
H       -2.1965400       0.1513900       1.5651300
H       -0.6114900      -1.6630400       1.8047300
H       -1.7051000      -2.7040100       0.8650900
H        2.0394400      -1.9543200       1.3783100
H        0.2948100      -2.4583100      -0.6315800
H        2.6824000      -2.0515100      -0.2665500
H        3.6074400      -1.1508500       0.9881700
