23
dipolar_000279 reactant_1 @ TS geom
C       -0.9628500      -0.2839100       0.5696100
C       -1.9515600      -1.3801800       0.5441100
C       -2.8743300      -1.5268100       1.7272800
O       -1.9378800      -2.2099000      -0.3776200
C       -1.1470300       0.9813200       1.4161900
C       -2.2411600       1.8711000       0.7512700
C       -1.5358400       2.3828500      -0.5410800
C       -0.1322300       1.7130900      -0.4684300
C        0.1193700       1.7752900       1.0512200
C       -0.2848800       0.1635200      -0.7003800
C       -0.8958400      -0.1479000      -1.9897100
N       -1.2448300      -0.3642300      -3.0802300
H       -3.4094200      -2.4796400       1.6677600
H       -2.2854900      -1.4911800       2.6688600
H       -3.5838500      -0.6927100       1.7691600
H       -1.3301400       0.7840700       2.4765900
H       -2.4976500       2.7485400       1.4577700
H       -3.1892900       1.3763500       0.5654900
H       -1.4258400       3.5326800      -0.4956000
H       -2.1137500       2.1945600      -1.4386900
H        0.5918200       2.1765500      -1.1345700
H        0.1105500       2.8065500       1.4414500
H        1.0224300       1.2703200       1.3506600
