14
dipolar_000279 reactant_2 (FRAG2 relaxed, reordered to d) type=dipole
C       -0.5004800      -0.0037800       0.1107200
N       -1.6420000       0.1788400      -0.5955300
C        0.7367900       0.1075500      -0.6483600
O       -0.4891900      -0.2509000       1.3364200
C       -2.9655000       0.0969400      -0.0186100
N        1.8577000      -0.0712700       0.0383600
N        3.0710100      -0.0245200      -0.3904700
H        0.7964100       0.3234700      -1.7145800
H        1.6556300      -0.2686100       1.0366300
H       -3.5585500      -0.7052200      -0.4873800
H       -2.8710300      -0.1184000       1.0521500
H       -1.5583700       0.3737300      -1.5880000
H       -3.5148700       1.0445900      -0.1399300
H        3.6638100      -0.2128300       0.4246400
