37
dipolar_000279 TS complex (tags stripped)
C        3.8639500       0.9779500       1.1637100
N        2.9116500      -0.0366600       0.7484300
C        2.3973300      -0.0243700      -0.4943400
O        2.8455300       0.6803100      -1.4074100
C        1.1885800      -0.9055700      -0.7922600
N        0.8718600      -1.9386200       0.1152100
N        0.3573000      -1.3516600       1.2373600
C       -0.9628500      -0.2839100       0.5696100
C       -1.9515600      -1.3801800       0.5441100
C       -2.8743300      -1.5268100       1.7272800
O       -1.9378800      -2.2099000      -0.3776200
C       -1.1470300       0.9813200       1.4161900
C       -2.2411600       1.8711000       0.7512700
C       -1.5358400       2.3828500      -0.5410800
C       -0.1322300       1.7130900      -0.4684300
C        0.1193700       1.7752900       1.0512200
C       -0.2848800       0.1635200      -0.7003800
C       -0.8958400      -0.1479000      -1.9897100
N       -1.2448300      -0.3642300      -3.0802300
H        3.3957700       1.9940400       1.1486200
H        4.1939900       0.7733600       2.1848900
H        4.7240200       1.0014000       0.4944600
H        2.3600400      -0.5125800       1.4695200
H        1.3614400      -1.3953400      -1.8253400
H        0.3503400      -2.7383700      -0.3018700
H        0.0373400      -2.2469300       1.7889300
H       -3.4094200      -2.4796400       1.6677600
H       -2.2854900      -1.4911800       2.6688600
H       -3.5838500      -0.6927100       1.7691600
H       -1.3301400       0.7840700       2.4765900
H       -2.4976500       2.7485400       1.4577700
H       -3.1892900       1.3763500       0.5654900
H       -1.4258400       3.5326800      -0.4956000
H       -2.1137500       2.1945600      -1.4386900
H        0.5918200       2.1765500      -1.1345700
H        0.1105500       2.8065500       1.4414500
H        1.0224300       1.2703200       1.3506600
