20
dipolar_001323 reactant_1 @ TS geom
C        4.1734300      -2.7293000       0.1513100
N        3.3281500      -1.5652500       0.0008600
C        2.5435000      -1.1307600       1.0087000
O        2.4938900      -1.6778000       2.1212000
C        1.7747600       0.0875600       0.7662600
O        1.5630300       0.5826900      -0.4957400
C        0.7942700       1.6177200      -0.4262300
C        0.3442900       2.3401200      -1.6555200
C       -0.4496400       3.5839000      -1.4296600
O        0.6783800       1.8915600      -2.7408900
O        0.4299600       1.8729200       0.7793300
C        1.0568200       0.8594200       1.6837100
O        0.8523500       0.9220200       2.8765900
H        4.8046200      -2.6239700       1.0525000
H        3.5904700      -3.6463900       0.2418600
H        4.8254400      -2.7894900      -0.7269300
H        3.2462500      -1.1072800      -0.8997100
H       -0.3972700       4.2001800      -2.3275300
H       -1.4928800       3.3181800      -1.2154300
H       -0.0537700       4.1284500      -0.5508100
