24
dipolar_001323 reactant_2 @ TS geom
C       -1.2958300      -0.2265600      -0.4588200
C       -2.2675100       0.8367300      -0.1382500
O       -2.8940000       1.4147100      -1.0476500
N       -2.5126000       1.0956500       1.1642100
C       -3.4950500       2.0765900       1.5676300
C       -1.2041900      -0.8263900      -1.8548300
C       -2.3136300      -1.9233800      -1.7700400
C       -1.7096800      -2.9455800      -0.7626300
C       -0.2996100      -2.3256700      -0.4236000
C        0.0637100      -1.6989300      -1.7825600
C       -0.7661100      -1.1235500       0.3358700
F       -0.8659800      -1.1803100       1.6872600
H       -1.9675800       0.6153400       1.8787100
H       -4.4644000       1.8671600       1.0839800
H       -3.1844300       3.0886700       1.2943600
H       -3.6208100       2.0133500       2.6537100
H       -1.2713600      -0.1172100      -2.6993700
H       -2.4763900      -2.3433700      -2.7177200
H       -3.2486500      -1.4468600      -1.3915100
H       -2.2937700      -3.0167700       0.1863400
H       -1.5754000      -3.8996300      -1.1803100
H        0.4281100      -2.9978900       0.0573000
H        0.0709200      -2.4594200      -2.5844600
H        1.0191500      -1.1522600      -1.8260500
