24
dipolar_001323 reactant_2 (FRAG2 relaxed, reordered to d) type=dipolarophile
C        0.0665300       0.0743800      -0.3556400
C       -1.1642100      -0.3317600      -1.1619600
O        1.4884500      -1.6460800      -1.1396900
N        2.3699200      -0.1631800       0.3306200
C       -1.9522600       0.9962700      -1.1870400
C       -0.3918400       0.9883400       0.5223600
C        1.3526100      -0.6420100      -0.4198600
C       -2.5361300      -0.1334500       0.8417800
C       -1.8693600       1.1957500       0.3425500
C       -2.0568500      -1.1818700      -0.2040800
C        3.6645600      -0.8119000       0.3539200
F        0.2824000       1.5331800       1.5411700
H       -1.4424900       1.7901400      -1.7518100
H       -0.9391800      -0.8076000      -2.1234400
H       -2.9858500       0.8825400      -1.5466000
H       -2.9056400      -1.6135400      -0.7549900
H        2.2112500       0.6434300       0.9237500
H        3.5946000      -1.8444500       0.7338600
H       -1.4871600      -2.0084100       0.2434100
H       -2.2339600      -0.3757600       1.8703200
H       -3.6296700      -0.0185700       0.8281200
H       -2.2752600       2.1160800       0.7791200
H        4.3355800      -0.2420400       1.0082600
H        4.1083500      -0.8559700      -0.6535400
