41
dipolar_002549 reactant_1 (FRAG1 relaxed, reordered to d) type=dipole
C        3.3801400       0.9609000      -3.3040800
N        2.3592700       0.5812900      -2.3499100
C        1.5761700      -0.1581000      -0.2018700
O        0.0106300       2.2343800       0.1459500
C        1.6824000      -0.0895300       1.2597300
C        0.2651900      -1.5950100      -1.7130800
O        0.6847100      -0.1889100       2.0130000
N        0.3254600      -0.5003800      -0.7200400
C        2.6803500       0.1649700      -1.0933600
N        2.9265300       0.0484200       1.7695300
C       -2.1903200      -2.0567000       0.1336500
C       -0.7563900       1.3402500       0.4460900
C       -0.7915400      -0.0135600      -0.1961200
O       -1.7434000       1.4814700       1.3289000
O        3.8855000       0.1172100      -0.7450400
C       -1.8464900       2.7569000       1.9774200
C       -2.0776000      -0.7218400      -0.2961000
C       -3.2162200      -0.0615000      -0.7952200
C       -4.4336800      -0.7343300      -0.8882400
C       -4.5357800      -2.0655500      -0.4683200
C       -3.4137500      -2.7212900       0.0487100
C        3.1731200       0.0250900       3.1926300
H        4.1351700       0.1668800      -3.4024700
H        3.9035900       1.8876300      -3.0103700
H        2.9091500       1.1211400      -4.2825700
H        3.6913400       0.0206800       1.0922400
H        1.1684200      -1.5527500      -2.3269700
H        0.2369000      -2.5618400      -1.1958200
H       -1.3213700      -2.5605300       0.5600700
H        3.0693700      -0.9866800       3.6236700
H       -0.6220100      -1.4789000      -2.3453800
H       -3.1388100       0.9772800      -1.1228400
H       -3.4926900      -3.7544200       0.3944200
H        1.3987900       0.8376100      -2.5484000
H       -2.0088400       3.5534000       1.2373900
H       -0.9295800       2.9659300       2.5473100
H       -5.4921100      -2.5889700      -0.5372700
H       -2.7063900       2.6825500       2.6525400
H       -5.3083400      -0.2174600      -1.2892800
H        2.4675300       0.6839700       3.7209500
H        4.1953200       0.3769400       3.3847400
