41
dipolar_002549 reactant_1 @ TS geom
C       -3.1395400       2.0863800      -3.0701800
N       -2.7783200       1.4467400      -1.8164300
C       -1.6779800       1.8395900      -1.1382300
O       -1.0542500       2.8592600      -1.4266300
C       -1.2790700       1.0227200       0.0993900
C       -2.2481500       1.1140600       1.2609400
O       -1.8989300       0.8731300       2.4242100
N       -3.5376800       1.3909000       0.9761500
C       -4.5633200       1.2627600       1.9924400
N        0.0744600       1.1314800       0.4285100
C        0.5177100       1.9495700       1.5734400
C        0.9569200       0.3822400      -0.4017400
C        0.7968800       0.8363000      -1.8855900
O        0.0248500       0.3460100      -2.6840400
O        1.5753000       1.8773800      -2.1879100
C        1.4767700       2.3669800      -3.5457900
C        2.3932300       0.2167200      -0.0031200
C        2.7955000       0.0557600       1.3376600
C        4.0878700      -0.3649600       1.6557700
C        5.0095300      -0.6525600       0.6471500
C        4.6236600      -0.5086800      -0.6876700
C        3.3377100      -0.0777300      -1.0072900
H       -3.2065400       3.1752700      -2.9605400
H       -2.3933900       1.8599300      -3.8512400
H       -4.1152300       1.6965400      -3.3853500
H       -3.0467300       0.5013200      -1.6680000
H       -3.8184700       1.6041500       0.0235100
H       -4.5968800       0.2270200       2.3929800
H       -4.3850900       1.9348300       2.8422600
H       -5.5374900       1.4919000       1.5510400
H       -0.1716200       2.7720100       1.7590500
H        1.5172200       2.3368800       1.4264400
H        0.5322500       1.3425300       2.5462900
H        0.4667300       2.7564500      -3.7603700
H        2.2203600       3.1652500      -3.6756600
H        1.6956500       1.5507000      -4.2801200
H        2.0970800       0.2215100       2.1604700
H        4.3548000      -0.5039000       2.7019100
H        6.0033500      -1.0067900       0.8898800
H        5.3040200      -0.7467200      -1.4982000
H        3.0617500       0.0221100      -2.0592700
