23
dipolar_001187 reactant_1 (FRAG1 relaxed, reordered to d) type=dipolarophile
C       -2.0644400       0.0358200       0.6789500
Cl       0.7431200       0.9863800       2.3346700
C       -3.8818900       0.0573700      -0.9268000
C       -2.9697400      -0.1985400      -1.9548500
C       -1.6107800      -0.3415100      -1.6708400
C       -1.1310200      -0.2195600      -0.3492900
O        2.3158800      -1.4682800      -0.2089100
C        0.2956600      -0.3505600      -0.0827100
C        1.0934400       0.0687900       0.9198700
C        2.5449700      -0.2386200       0.4937600
C        2.8734000       0.7081600      -0.6850300
C        1.3280200      -0.9238800      -1.1034400
C        2.1080400       0.2729700      -1.6902100
C       -3.4215400       0.1703400       0.3903700
H       -4.9461300       0.1646000      -1.1488800
H       -3.3176200      -0.2899200      -2.9865000
H       -0.9137400      -0.5373300      -2.4876700
H        0.9504600      -1.6775200      -1.8015700
H       -1.7237200       0.1178400       1.7107500
H        3.2815700      -0.3354700       1.2983100
H        3.5446700       1.5644700      -0.6333500
H        1.9778200       0.6734200      -2.6949000
H       -4.1277000       0.3622000       1.2018000
