20
dipolar_001187 reactant_2 @ TS geom
C       -1.6641800       3.7232700       1.1735500
N       -1.8718600       2.3464200       0.7941600
C       -1.6063000       1.8760500      -0.4367300
O       -1.1970300       2.6126300      -1.3706300
C       -1.8317300       0.4462500      -0.6754600
C       -2.4338800      -0.4573800       0.2471100
C       -3.0302000      -1.7664900      -0.2254600
O       -2.5665400      -0.1653900       1.4631100
N       -1.3704500       0.0996000      -1.9327600
C       -1.1461400      -1.0234700      -2.5326500
H       -2.5357100       4.3482700       0.9303400
H       -1.4914600       3.7733900       2.2590000
H       -0.7876200       4.1333900       0.6595400
H       -2.1276300       1.6243800       1.4807100
H       -3.3509100      -1.7225200      -1.2784800
H       -3.8905800      -1.9828700       0.4150300
H       -2.3067700      -2.5889600      -0.1242600
H       -1.0885200       0.9437200      -2.4465100
H       -1.2187600      -1.9893300      -1.9173800
H       -0.5347900      -1.0691400      -3.4192400
