20
dipolar_001187 reactant_2 (FRAG2 relaxed, reordered to d) type=dipole
C       -2.5321200      -1.5260800      -0.3249200
N       -1.2750700      -1.2659500      -0.1435500
C       -0.4612000      -0.1486100      -0.0643700
O        1.1970400      -1.8079300       0.2452600
C        0.9340300      -0.5831300       0.1569600
C       -0.8841600       1.2148200      -0.1711900
C       -2.3429700       1.5425000      -0.3860200
O       -0.0677700       2.1643500      -0.0891600
N        1.8831500       0.3604500       0.2569100
C        3.2726100       0.0275800       0.4786000
H       -2.8261700      -2.5760000      -0.3290400
H       -3.2724300      -0.7443000      -0.4679000
H       -0.6451500      -2.0840800      -0.0167200
H       -2.7166300       1.1058300      -1.3266900
H        1.5521200       1.3247900       0.1734200
H       -2.4523500       2.6337300      -0.4302000
H        3.8590800       0.9543700       0.5111000
H        3.4170600      -0.5104800       1.4302900
H        3.6715900      -0.6104000      -0.3271400
H       -2.9660200       1.1513500       0.4348600
