43
dipolar_001187 TS complex (tags stripped)
C       -1.6641800       3.7232700       1.1735500
N       -1.8718600       2.3464200       0.7941600
C       -1.6063000       1.8760500      -0.4367300
O       -1.1970300       2.6126300      -1.3706300
C       -1.8317300       0.4462500      -0.6754600
C       -2.4338800      -0.4573800       0.2471100
C       -3.0302000      -1.7664900      -0.2254600
O       -2.5665400      -0.1653900       1.4631100
N       -1.3704500       0.0996000      -1.9327600
C       -1.1461400      -1.0234700      -2.5326500
C        1.2273000      -1.2987000      -1.0003900
Cl       2.1713700      -0.5213900      -2.2351900
C        1.1091100      -2.8310700      -0.9934000
C        2.2218400      -3.2355300       0.0143300
C        1.7684000      -2.8159800       1.1984200
C        0.3899600      -2.1679000       0.8897900
O       -0.0560400      -3.0055000      -0.1885700
C        0.7537900      -0.8499500       0.1422600
C        0.9377400       0.4147500       0.8575300
C        1.4396600       1.5665800       0.2203000
C        1.7204400       2.7172400       0.9523500
C        1.5024200       2.7502600       2.3339000
C        0.9806500       1.6242100       2.9735400
C        0.6959300       0.4688800       2.2426500
H       -2.5357100       4.3482700       0.9303400
H       -1.4914600       3.7733900       2.2590000
H       -0.7876200       4.1333900       0.6595400
H       -2.1276300       1.6243800       1.4807100
H       -3.3509100      -1.7225200      -1.2784800
H       -3.8905800      -1.9828700       0.4150300
H       -2.3067700      -2.5889600      -0.1242600
H       -1.0885200       0.9437200      -2.4465100
H       -1.2187600      -1.9893300      -1.9173800
H       -0.5347900      -1.0691400      -3.4192400
H        1.0072000      -3.3820900      -1.9463400
H        3.1691100      -3.6111700      -0.3022400
H        2.2727900      -2.7577500       2.1392900
H       -0.3509400      -2.1220800       1.7081200
H        1.5923200       1.5663800      -0.8611500
H        2.1132900       3.5909000       0.4337400
H        1.7294700       3.6505700       2.9005400
H        0.7964300       1.6364700       4.0468900
H        0.2900600      -0.4013200       2.7644200
