31
dipolar_000991 reactant_1 @ TS geom
C        1.8052800      -1.2940600      -2.6626100
N        1.4673000      -0.4667000      -1.5292400
C        1.9828700      -0.6724200      -0.3212400
O        2.8601400      -1.4950600      -0.0632900
C        1.4053700       0.2386900       0.8185600
C        2.5068400       0.6424300       1.6871000
N        3.3654400       1.0552100       2.3517100
N        0.3506300      -0.3026700       1.5980300
C       -0.8885500      -0.3118400       0.9513900
C       -1.9935900      -0.0996300       1.9855300
C       -3.4031100      -0.4200900       1.6117800
O       -1.6881700       0.3609500       3.0747900
C       -1.0870900      -1.3472600      -0.1254300
C       -0.4229500      -2.5886700      -0.0675700
C       -0.5691700      -3.5199800      -1.1024700
C       -1.3878100      -3.2345500      -2.1986300
C       -2.0707300      -2.0147800      -2.2464400
C       -1.9270600      -1.0847000      -1.2180200
H        1.1015100      -1.0535700      -3.4668600
H        2.8282000      -1.0805900      -2.9980100
H        1.7251600      -2.3529600      -2.4070800
H        0.7058800       0.2051700      -1.5711200
H        0.2356000       0.1820000       2.5000200
H       -3.5080400      -1.4781900       1.3075900
H       -3.6948500       0.1957000       0.7581600
H       -4.0623700      -0.2114200       2.4679900
H        0.2322600      -2.8447500       0.7694100
H       -0.0318400      -4.4817900      -1.0709800
H       -1.4988200      -3.9501400      -3.0217700
H       -2.7104300      -1.7689600      -3.0929300
H       -2.4396800      -0.1315500      -1.2575600
