17
dipolar_000067 reactant_2 @ TS geom
C       -1.0050800       1.6714700       1.6299000
C       -1.7694400       2.7234800       1.1002300
N       -2.4432900       3.5951700       0.6975300
N       -0.1134200       1.0500500       0.8857200
C        0.6387100       0.3914900       0.2238800
C        1.9277400       0.0085200      -0.2139600
C        3.0247200       0.3525400       0.5989100
C        4.3055000      -0.0063800       0.1994400
C        4.4943900      -0.6897500      -1.0084900
C        3.4028800      -1.0408600      -1.8121400
C        2.1099800      -0.7105500      -1.4134300
H       -1.2274700       1.2344700       2.5909800
H        2.7894500       0.8761500       1.5266600
H        5.1098400       0.2862800       0.8310400
H        5.4932600      -0.9255700      -1.3107200
H        3.5682700      -1.5708400      -2.7512600
H        1.2407500      -1.0242100      -2.0340000
