17
dipolar_000067 reactant_2 (FRAG2 relaxed, reordered to d) type=dipole
C        3.6456100       1.2509900       0.3031700
C        3.0469200      -0.0118400       0.3208500
N        4.1706500       2.3009500       0.2909800
N        1.7253700      -0.1343000       0.1907900
C        0.5668300      -0.2537000       0.0782400
C       -0.8316400      -0.3942800      -0.0608200
C       -1.6357600       0.7503900      -0.2628500
C       -3.0134200       0.5999600      -0.3983600
C       -3.6008400      -0.6692600      -0.3382500
C       -2.8009800      -1.8006000      -0.1386500
C       -1.4211900      -1.6771800       0.0021400
H        3.6323200      -0.9243800       0.4408400
H       -1.1723300       1.7368600      -0.3103400
H       -3.6348200       1.4845000      -0.5539000
H       -4.6820600      -0.7768200      -0.4469000
H       -3.2563600      -2.7921000      -0.0909400
H       -0.7933800      -2.5554500       0.1591300
