9
dipolar_000067 reactant_1 (FRAG1 relaxed, reordered to d) type=dipolarophile
C        0.6723600      -0.0471700      -0.0623800
O       -1.6860200      -0.7236600       0.3616100
C       -2.7564800       0.2677900       0.2390500
C       -0.4927000      -0.3518700       0.1402600
C        1.9751900       0.2922800      -0.2889600
N        3.0915900       0.5839500      -0.4833300
H       -2.5798700       1.0748700       0.9621200
H       -2.7708600       0.6519400      -0.7893200
H       -3.6792500      -0.2736100       0.4704800
