26
dipolar_000067 TS complex (tags stripped)
C       -1.4002100      -3.2026700      -1.4259600
O       -0.7082400      -2.0275600      -0.8768400
C       -1.5578800      -1.2490500      -0.3018100
C       -2.4606300      -0.6219100       0.2053900
C       -3.5523100       0.0234700       0.7200700
N       -4.5435200       0.5089300       1.1186600
C       -1.0050800       1.6714700       1.6299000
C       -1.7694400       2.7234800       1.1002300
N       -2.4432900       3.5951700       0.6975300
N       -0.1134200       1.0500500       0.8857200
C        0.6387100       0.3914900       0.2238800
C        1.9277400       0.0085200      -0.2139600
C        3.0247200       0.3525400       0.5989100
C        4.3055000      -0.0063800       0.1994400
C        4.4943900      -0.6897500      -1.0084900
C        3.4028800      -1.0408600      -1.8121400
C        2.1099800      -0.7105500      -1.4134300
H       -1.9377700      -3.6329000      -0.5328200
H       -0.7274000      -3.7924900      -1.8670400
H       -2.1949600      -2.7610200      -2.0950100
H       -1.2274700       1.2344700       2.5909800
H        2.7894500       0.8761500       1.5266600
H        5.1098400       0.2862800       0.8310400
H        5.4932600      -0.9255700      -1.3107200
H        3.5682700      -1.5708400      -2.7512600
H        1.2407500      -1.0242100      -2.0340000
