36
dipolar_002320 reactant_2 @ TS geom
C        0.5523700      -1.5886200      -0.3589600
C        0.6423000      -2.4829500      -1.5476800
C       -0.6688100      -2.9802800      -2.1352000
O        1.6952100      -2.9587600      -1.9610300
C        1.5060600      -1.8154800       0.7743800
C        2.4094400      -3.0275900       0.7793500
O        1.5530100      -1.0335700       1.7235000
C       -0.5387400      -0.7634700      -0.2302700
C       -1.1533700      -0.5178000       1.1002000
C       -1.7682600       0.6576700       1.5778100
C       -2.5216600       0.6329400       2.7531200
C       -2.7010700      -0.5634500       3.4554000
C       -2.1218700      -1.7407000       2.9737300
C       -1.3587300      -1.7128000       1.8166900
C       -1.2034100      -0.1632900      -1.4094300
C       -2.6117900      -0.0703000      -1.3691900
C       -3.3442300       0.2543600      -2.5035900
C       -2.6898200       0.5413000      -3.7062200
C       -1.2916600       0.5127400      -3.7575400
C       -0.5534800       0.1662300      -2.6261300
H       -0.5804500      -4.0587300      -2.2400200
H       -0.8321500      -2.5391700      -3.1173600
H       -1.5433000      -2.7405000      -1.4920000
H        1.8303700      -3.9429600       0.5764300
H        3.1908200      -2.9676300       0.0109800
H        2.8814500      -3.1050100       1.7737600
H       -1.7214800       1.6053900       1.0364500
H       -3.0018200       1.5466200       3.1162500
H       -3.3023300      -0.6003000       4.3591900
H       -2.2668000      -2.6917600       3.4605300
H       -0.9227500      -2.6183200       1.3932200
H       -3.1067900      -0.3206100      -0.4395000
H       -4.4247800       0.2555000      -2.4385900
H       -3.2801400       0.7870500      -4.5929500
H       -0.7828800       0.7468700      -4.7031700
H        0.5338200       0.1637700      -2.7227300
