18
dipolar_002320 reactant_1 (FRAG1 relaxed, reordered to d) type=dipole
C        2.2450000       1.0043300      -1.3012900
O       -3.0246700       0.7003100      -0.9714500
C       -0.9204600       0.1250700      -0.1848300
O       -2.8053500      -0.6562100       0.8418300
C       -2.3701200       0.0925000      -0.1539600
N        0.2326200       0.2427400      -0.3215300
C        2.2248600      -0.5345100       0.7337500
C       -4.2387100      -0.7723000       0.9811400
N        2.8372500       1.6146300      -2.1002700
C        1.5600400       0.2541100      -0.3183200
C        3.7290500      -0.5176200       0.7320200
O        1.5585600      -1.1599300       1.5523100
H       -4.6796600       0.2197400       1.1496100
H        4.0987900       0.5132300       0.8536600
H        4.1149000      -0.8899400      -0.2304500
H        4.1026800      -1.1451300       1.5507800
H       -4.3966000      -1.4190200       1.8503300
H       -4.6664500      -1.2257100       0.0764500
