18
dipolar_002320 reactant_1 @ TS geom
C       -0.0415400       4.2285700       1.6484900
O        0.5450500       2.9902200       1.2456100
C        0.2030300       2.5361600       0.0534600
O       -0.6084600       2.9772900      -0.7294800
C        0.9786900       1.3521800      -0.1598100
N        2.0097100       0.8914400      -0.5598800
C        2.9830700       0.1559000      -0.9772400
C        2.9755600      -0.2609000      -2.3343700
N        3.0236300      -0.5645800      -3.4573300
C        4.1128400      -0.1956500      -0.1098300
C        4.2379400       0.5336000       1.1935300
O        4.9014600      -1.0492800      -0.5031900
H       -1.1156300       4.0929300       1.7405700
H        0.1975100       4.9814400       0.8851500
H        0.4338500       4.4493900       2.5935800
H        3.3671300       0.3001300       1.8299500
H        5.1613800       0.2341900       1.6860100
H        4.2252700       1.6203600       1.0062900
