36
dipolar_002320 reactant_2 (FRAG2 relaxed, reordered to d) type=dipolarophile
C       -1.3598100      -0.2467700      -0.0735300
C        0.5086200       1.2609400       0.5646800
C        1.6146100       1.2474100       1.4357900
O       -3.4118100       0.9218600      -0.0055300
C       -2.4036200       0.5942600       0.6079200
C       -2.2619700       0.8849400       2.0789700
O       -2.8482200      -2.0624300      -0.3375900
C       -0.0178600      -0.0028400       0.0006100
C        0.9745200      -0.9906300      -0.4812500
C       -1.5692200      -1.5811500      -2.2876000
C       -1.9612000      -1.3882800      -0.8461800
C        0.8168800      -2.3606800      -0.2018300
C        1.7364800      -3.2931900      -0.6847500
C        2.0894900      -0.5736800      -1.2331300
C       -0.0888600       2.4938600       0.2438200
C        3.0004900      -1.5085000      -1.7235900
C        2.8255400      -2.8708600      -1.4526800
C        2.0853300       2.4330600       1.9988100
C        1.4738000       3.6525800       1.6845100
C        0.3913000       3.6805100       0.8004400
H        2.0898800       0.2973500       1.6866400
H        2.9332100       2.4074500       2.6871000
H       -0.0177500      -2.6928500       0.4181000
H       -2.7464000       0.0367700       2.5961500
H       -2.8062100       1.8026200       2.3412400
H       -1.2232300       0.9327100       2.4239100
H       -0.5481200      -1.2565700      -2.5162600
H       -2.2597200      -0.9445500      -2.8702900
H       -1.7272300      -2.6254300      -2.5901900
H        1.6053400      -4.3528100      -0.4541700
H       -0.9176000       2.5238900      -0.4657900
H        2.2252000       0.4873600      -1.4503200
H        3.8517600      -1.1744300      -2.3210900
H        1.8478800       4.5809100       2.1223100
H       -0.0777900       4.6311000       0.5369000
H        3.5435000      -3.6009300      -1.8334300
