! wB97X-3c Opt Freq TightSCF
%pal nprocs 8 end
%maxcore 4000
* xyzfile 0 1 ../build/mol.xyz
