15
dipolar_000415 reactant_1 @ TS geom
C       -0.8711800       3.8668400      -0.7764100
O       -1.3261000       2.5502000      -0.4074500
C       -0.5527900       1.8621500       0.4566900
O        0.4188800       2.3503600       1.0107100
C       -0.9180900       0.4513000       0.5166400
C       -1.4310700      -0.6221000       1.0083600
C       -2.2911000      -1.1125500       2.1421700
C       -1.5539800      -1.6113500       3.3588200
O       -3.5033200      -1.2228900       2.0224000
H       -1.5917400       4.2492000      -1.5374800
H       -0.8365600       4.5544600       0.0682900
H        0.1371700       3.8371500      -1.2581800
H       -1.1052900      -0.8197100       3.9173100
H       -2.2435100      -2.2159500       4.0207200
H       -0.7358000      -2.3105000       3.0349200
