15
dipolar_000415 reactant_1 (FRAG1 relaxed, reordered to d) type=dipolarophile
C       -3.3292700       0.8402600       0.5184900
O       -3.0423000      -1.0559100      -0.9365700
C       -1.0973900      -0.1560600      -0.0453200
O        2.1756200       0.6744900      -0.5420600
C        0.1091600      -0.1138700       0.0933400
C        1.5419800      -0.1083500       0.3254300
C        3.6059200       0.7639800      -0.3999200
C       -2.5468000      -0.2017600      -0.2199900
O        2.0705400      -0.7464300       1.2119300
H       -3.1207300       0.7635400       1.5983000
H       -3.0022200       1.8428800       0.1966400
H       -4.4018300       0.7080700       0.3246600
H        4.0623500      -0.2286900      -0.5197900
H        3.9418800       1.4386800      -1.1948600
H        3.8640500       1.1736900       0.5868800
