22
dipolar_000415 reactant_2 @ TS geom
C       -0.9042300      -2.0961300       0.1164700
C       -1.8601900      -3.2592700       0.0774000
N       -0.6152700      -1.5469800      -1.1406800
C        0.1155900      -0.3797000      -1.1861000
C       -0.2263500       0.4495900      -2.3167100
N       -0.5149400       1.1500800      -3.1976500
C        1.5493100      -0.3212400      -0.7729700
C        2.2531000       0.8861100      -0.9348800
C        3.5880100       0.9909400      -0.5421900
C        4.2477900      -0.1078800       0.0134400
C        3.5669800      -1.3226000       0.1456400
C        2.2337000      -1.4344600      -0.2507000
H       -0.0047400      -2.2843100       0.7128800
H       -1.4171500      -4.2090000      -0.4353200
H       -2.1259200      -3.5808800       1.0624900
H       -2.7615800      -3.0285800      -0.5172100
H       -1.4304600      -1.5697600      -1.7723200
H        1.7603500       1.7349800      -1.3951700
H        4.1062900       1.9393400      -0.6748900
H        5.2913000      -0.0148100       0.3404500
H        4.0838200      -2.1906300       0.5747900
H        1.7560200      -2.4109300      -0.1514200
