19
dipolar_000219 reactant_2 @ TS geom
C       -0.8798000      -0.2804700       0.2785100
C       -2.0641600      -0.0020600      -0.4851800
C       -2.9053400       1.0641800      -0.0931200
C       -4.1115800       1.2731500      -0.7568100
C       -4.4913100       0.4402500      -1.8152500
C       -3.6438400      -0.5966200      -2.2271300
C       -2.4348100      -0.8179800      -1.5761000
O       -0.0227300      -1.2520800      -0.0941600
C        0.9864200      -1.3054700       0.7429600
C        1.9802700      -2.2849800       0.7009500
N        2.8206800      -3.1006200       0.6972000
O        0.8941800      -0.3544700       1.6370300
C       -0.3003400       0.4031300       1.3902000
O       -0.6076400       1.3365300       2.1061700
H       -2.6035000       1.7180300       0.7282100
H       -4.7698500       2.0806000      -0.4310600
H       -5.4469200       0.5923800      -2.3147700
H       -3.9345800      -1.2512400      -3.0465900
H       -1.7654300      -1.6157900      -1.8976200
