11
dipolar_000219 reactant_1 @ TS geom
C        4.4340900       0.3497900      -0.0770200
C        3.0768100       0.9823800       0.0563000
O        2.8129300       1.7730500       0.9615000
C        2.0854000       0.6501600      -1.0099400
C        0.9720200       1.3203700      -1.1327700
H        4.3665000      -0.7435700       0.0320700
H        5.1190800       0.7715400       0.6509500
H        4.7927500       0.5391900      -1.1078000
H        2.2803200      -0.2755800      -1.5966300
H        0.6795900       2.1184800      -0.4365600
H        0.1773700       1.0183800      -1.8609000
