21
dipolar_001839 reactant_1 (FRAG1 relaxed, reordered to d) type=dipolarophile
C        0.4709300      -0.0664400       0.0741800
C       -0.4674800      -1.0422400       0.0132700
C        1.8157400      -0.0347700      -0.5033100
O       -1.0993300       0.4062500       1.6725300
C        2.5008100       1.3087400      -0.5363000
C       -0.2593900       1.1259100       0.7507200
C       -1.3184900       1.6385700      -0.2501700
C       -2.2338900       0.6664300      -0.3097400
O        2.3696900      -1.0426100      -0.9475300
C       -1.7208000      -0.4130800       0.6681500
C       -0.4795000      -2.3882300      -0.5997400
H        2.6834800       1.6606200       0.4926500
H        0.3605900       1.8719300       1.2572400
H       -0.6764500      -3.1534000       0.1716300
H        3.4553700       1.2327700      -1.0730600
H        1.8541300       2.0595200      -1.0196500
H       -1.2534800       2.5706600      -0.8105800
H       -3.1222700       0.5770600      -0.9337100
H       -1.3149200      -2.4575900      -1.3191800
H       -2.4535100      -1.1115700       1.0873300
H        0.4649000      -2.6209800      -1.1037800
