31
dipolar_002689 reactant_1 @ TS geom
C        4.5102000      -1.3117800       0.7335000
N        3.4952400      -0.5850700       0.0038400
C        2.3039700      -1.1446400      -0.2751700
O        2.0411000      -2.3104700       0.0542000
C        1.3029100      -0.3208000      -1.0153700
C        1.7841600       0.7964500      -1.8569900
O        2.7708900       1.4844200      -1.6087100
O        0.9893800       1.0386200      -2.8989300
C        1.3006300       2.1741400      -3.7235000
N        0.1865100      -0.9694400      -1.4970100
C       -0.7612600      -1.5457800      -0.5914300
C       -2.0356800      -1.7656800      -1.5574000
C       -3.0054600      -2.8778000      -1.2778200
O       -2.0540300      -1.1769400      -2.6231000
C       -0.3904200      -2.9825500      -0.1015700
C        0.2037600      -3.9784900      -1.0795100
O       -0.7696100      -3.3589400       1.0017700
H        4.1451800      -1.6059400       1.7344400
H        4.8159600      -2.2324400       0.2118800
H        5.3834300      -0.6637000       0.8552000
H        3.6590000       0.3473000      -0.3525000
H        1.3662000       3.0847200      -3.1060900
H        2.2469800       2.0222500      -4.2580500
H        0.4727200       2.2769900      -4.4424400
H       -0.2957700      -0.4671600      -2.2680000
H       -2.6740700      -3.7973700      -1.8327300
H       -3.9796000      -2.5947300      -1.6985500
H       -3.0627700      -3.1040400      -0.2353400
H        0.9047300      -4.6913800      -0.4959300
H       -0.5877800      -4.6526000      -1.4628700
H        0.7750000      -3.5841100      -1.9089200
