30
dipolar_002689 reactant_2 (FRAG2 relaxed, reordered to d) type=dipolarophile
C        1.6789200       0.9746700       0.9254700
C       -0.0960500       1.0972700      -1.9349400
O        0.4215500       1.1326500      -3.0637700
N       -0.5490800       2.2139800      -1.3279100
C       -0.9868800      -1.3924000      -1.9558300
C        0.7368100      -0.0594100       1.1004000
C        2.2807400       1.5795700       2.0277000
C        1.9595000       1.1625800       3.3251900
C        0.4387800      -0.4862200       2.4099600
O       -0.2532900      -2.4984700      -1.4015300
C        0.0675200      -0.6791300      -0.0367800
C       -1.2494600       2.3336700      -0.0631900
C       -0.2700500      -0.2091700      -1.2556500
C       -2.0300600      -2.0324000      -0.0261300
C       -2.3428900      -1.5656000      -1.2393800
C       -0.4916800      -2.1368100      -0.0316500
C        1.0387600       0.1267600       3.5112700
H       -0.9781100      -1.3839700      -3.0506100
H       -3.3110300      -1.2827000      -1.6511400
H       -0.0235700      -2.8349500       0.6698200
H       -0.3676600       3.0718600      -1.8447000
H        1.9525700       1.2899300      -0.0828000
H        3.0112900       2.3773700       1.8747100
H        2.4328800       1.6381000       4.1872700
H       -0.2829200      -1.2908000       2.5664700
H       -1.7326400       1.3846300       0.1970500
H       -2.0292100       3.1032200      -0.1548000
H       -2.6700000      -2.2394100       0.8308800
H        0.7871500      -0.2079200       4.5203400
H       -0.5753400       2.6200400       0.7598100
