30
dipolar_002689 reactant_2 @ TS geom
C       -1.0140200      -0.4530500       0.7651000
C       -2.5264700      -0.0509600       0.7267300
O       -3.2732700      -0.4327400      -0.1899000
N       -3.0073300       0.7010000       1.7211400
C       -4.4160100       1.0711900       1.7756700
C       -0.7168600      -0.9047100       2.2950900
C        0.7088900      -1.3803000       2.4767400
C        1.4737000      -0.2836500       2.4081900
C        0.5094600       0.8546800       2.1578700
O       -0.6456000       0.4049400       2.9068800
C       -0.0733800       0.7341100       0.7094800
C       -0.2906700       1.9500900      -0.0565600
C       -1.2663300       2.0331600      -1.0824500
C       -1.4201800       3.1955900      -1.8360200
C       -0.6046500       4.3074600      -1.6081500
C        0.3778400       4.2419100      -0.6107300
C        0.5353500       3.0891400       0.1498600
H       -2.4054600       1.0179400       2.4671500
H       -4.7240200       1.7039900       0.9182400
H       -4.6474200       1.6281600       2.7034000
H       -5.0944400       0.1776000       1.7576700
H       -1.5225100      -1.4614000       2.8031500
H        0.9838900      -2.4108900       2.5663700
H        2.5571000      -0.2049600       2.4067200
H        0.8518900       1.8703100       2.4944000
H       -1.9114100       1.1866900      -1.2820600
H       -2.1775500       3.2227000      -2.6183600
H       -0.7191100       5.2101200      -2.2109100
H        1.0425700       5.0963600      -0.4415800
H        1.3225700       3.0623000       0.9078400
