31
dipolar_002689 reactant_1 (FRAG1 relaxed, reordered to d) type=dipole
C        2.5353300      -2.9459900      -1.4206400
N        2.1796700      -1.5649900      -1.1687900
C        1.0595800      -1.2448700      -0.4972200
O        3.0720900       0.9690400      -0.5961400
C        0.8631800       0.1792400      -0.1504500
C       -1.9575200      -1.0144700      -0.5082000
O        0.2285600      -2.1016500      -0.1427700
O       -1.7706300      -0.8293300      -1.7023600
C       -2.7098800      -2.2062400       0.0103900
N       -0.2998300       0.5808000       0.3895500
C       -1.5192900       0.0612800       0.4463200
C       -2.4306900       0.8487900       1.3049200
C       -3.8689300       0.4430300       1.4268300
O       -1.9815200       1.8333100       1.8972500
C        1.9503400       1.1591500      -0.1401900
C        2.5806000       3.3558500       0.4873900
O        1.5862500       2.3247600       0.4172500
H        2.8710600      -0.8248900      -1.2877400
H        2.8091000      -3.4783200      -0.4936200
H        3.3908300      -2.9729300      -2.1067500
H        1.6927100      -3.4826100      -1.8803000
H       -2.4478300      -3.0789100      -0.6032500
H       -2.4959900      -2.4029700       1.0687700
H       -3.7910600      -2.0271700      -0.1056200
H       -0.2561800       1.4806600       0.9020200
H        2.0896800       4.2137200       0.9605400
H       -4.4130100       1.2079100       1.9949400
H        2.9259900       3.6231600      -0.5214900
H        3.4361900       3.0246800       1.0933000
H       -4.3305100       0.3118600       0.4360200
H       -3.9422700      -0.5212700       1.9544800
