18
dipolar_001484 reactant_1 @ TS geom
C        1.3705700       0.1724000       3.9494200
N        0.2990300       0.6307200       3.0936000
C        0.5732400       1.2077100       1.8919200
O        1.7066400       1.5870400       1.5851400
N       -0.6188900       1.3246500       1.1614900
O       -0.5828300       1.7669500      -0.1148000
N        0.4213900       1.3523200      -0.9571200
C        1.6411900       2.0153800      -0.8349200
O        2.6882400       1.5255700      -1.2626600
O        1.5185500       3.2908300      -0.4432000
C        2.7639400       3.9957400      -0.2398700
H        1.9412500      -0.6271300       3.4420900
H        0.9296300      -0.2201800       4.8636800
H        2.0661200       0.9848400       4.1918100
H       -0.6455600       0.3362400       3.2396600
H        3.4096200       3.4976700       0.5386900
H        3.3695600       4.0556200      -1.1696500
H        2.5659400       5.0301400       0.1128800
