23
dipolar_001484 reactant_2 @ TS geom
C        0.4612900      -0.7439000      -1.0367500
Cl       0.2344700      -0.9039200      -2.7411700
C        1.7431300      -1.4119000      -0.4771400
C        1.5117100      -2.9455000      -0.6014500
C        0.5879900      -3.2331700       0.3249000
C        0.2614100      -1.8766400       0.9901000
O        1.5298500      -1.2162000       0.9234200
C       -0.5325900      -1.0935200      -0.0743200
C       -1.9636500      -1.0927700      -0.2019600
C       -2.6123400      -0.3352700      -1.2086800
C       -4.0022500      -0.2968300      -1.2706700
C       -4.7705800      -1.0219600      -0.3527400
C       -4.1423400      -1.7908700       0.6373700
C       -2.7558800      -1.8213800       0.7211400
H        2.6823100      -1.0707900      -0.8705500
H        2.0380600      -3.7012800      -1.2459000
H        0.1359800      -4.2211200       0.6556900
H       -0.1418900      -1.8667200       1.9942700
H       -2.0296400       0.2179200      -1.9328900
H       -4.4959000       0.3071100      -2.0335000
H       -5.8683700      -0.9747200      -0.3926600
H       -4.7456500      -2.3465100       1.3633600
H       -2.2806500      -2.4239300       1.4937100
