41
dipolar_001484 TS complex (tags stripped)
C        1.3705700       0.1724000       3.9494200
N        0.2990300       0.6307200       3.0936000
C        0.5732400       1.2077100       1.8919200
O        1.7066400       1.5870400       1.5851400
N       -0.6188900       1.3246500       1.1614900
O       -0.5828300       1.7669500      -0.1148000
N        0.4213900       1.3523200      -0.9571200
C        1.6411900       2.0153800      -0.8349200
O        2.6882400       1.5255700      -1.2626600
O        1.5185500       3.2908300      -0.4432000
C        2.7639400       3.9957400      -0.2398700
C        0.4612900      -0.7439000      -1.0367500
Cl       0.2344700      -0.9039200      -2.7411700
C        1.7431300      -1.4119000      -0.4771400
C        1.5117100      -2.9455000      -0.6014500
C        0.5879900      -3.2331700       0.3249000
C        0.2614100      -1.8766400       0.9901000
O        1.5298500      -1.2162000       0.9234200
C       -0.5325900      -1.0935200      -0.0743200
C       -1.9636500      -1.0927700      -0.2019600
C       -2.6123400      -0.3352700      -1.2086800
C       -4.0022500      -0.2968300      -1.2706700
C       -4.7705800      -1.0219600      -0.3527400
C       -4.1423400      -1.7908700       0.6373700
C       -2.7558800      -1.8213800       0.7211400
H        1.9412500      -0.6271300       3.4420900
H        0.9296300      -0.2201800       4.8636800
H        2.0661200       0.9848400       4.1918100
H       -0.6455600       0.3362400       3.2396600
H        3.4096200       3.4976700       0.5386900
H        3.3695600       4.0556200      -1.1696500
H        2.5659400       5.0301400       0.1128800
H        2.6823100      -1.0707900      -0.8705500
H        2.0380600      -3.7012800      -1.2459000
H        0.1359800      -4.2211200       0.6556900
H       -0.1418900      -1.8667200       1.9942700
H       -2.0296400       0.2179200      -1.9328900
H       -4.4959000       0.3071100      -2.0335000
H       -5.8683700      -0.9747200      -0.3926600
H       -4.7456500      -2.3465100       1.3633600
H       -2.2806500      -2.4239300       1.4937100
