13
dipolar_000041 reactant_1 @ TS geom
C        0.9731600      -0.0782600       3.2766400
O        0.7870400       0.6885000       2.0763900
C        1.3425000       0.1952900       0.9558500
O        2.0579300      -0.7967600       0.9339700
C        0.9602500       0.9557100      -0.2136000
C        0.6618500       1.6712700      -1.2544100
C        1.3701000       2.8129800      -2.0358700
H        0.4203500       0.4585400       4.0601900
H        2.0335900      -0.1465900       3.5344900
H        0.5531100      -1.0930400       3.1602300
H        2.3863000       3.1416500      -1.7968400
H        0.6960700       3.7112100      -2.0025800
H        1.3588400       2.4998200      -3.1194900
