13
dipolar_000041 reactant_2 @ TS geom
C       -0.6851500       1.2759400      -1.9880900
O       -1.5829100       0.7073600      -1.0853600
C       -1.1353300      -0.3374900      -0.3716700
C       -1.8060200      -0.4711100       0.8854700
N       -2.2948200      -0.5630400       1.9380100
C       -0.5245800      -1.5429100      -0.9978400
C       -0.3626000      -2.7514400      -0.1209300
O       -0.1691500      -1.5335300      -2.1707200
H       -0.3626500       0.5109200      -2.7421900
H       -1.2757200       2.1447300      -2.4360200
H       -1.3414000      -3.1269100       0.2382200
H        0.2445400      -2.5114100       0.7553000
H        0.1307100      -3.5449800      -0.7073300
