25
dipolar_001158 reactant_1 (FRAG1 relaxed, reordered to d) type=dipole
C        3.5753600       1.7174900      -1.5101900
N        2.4934600       1.0163000      -0.8516600
C        2.7353900       0.0537200       0.0705000
O        3.8914800      -0.2617600       0.4158800
C        1.5853400      -0.6109500       0.6579000
C        1.7051600      -1.6126400       1.6233500
N        1.7635600      -2.4569800       2.4350000
O        0.3523600      -0.2207600       0.2258400
C       -0.8060400      -0.6447700       0.5763200
C       -1.9775200      -0.0790000      -0.0154400
C       -1.9107200       0.9444200      -0.9915500
C       -3.0823200       1.4605600      -1.5300300
C       -4.4037700      -0.0407100      -0.1464800
C       -3.2372100      -0.5668500       0.4010800
C       -4.3293600       0.9716600      -1.1103900
H        4.1997300       1.0365800      -2.1126600
H        4.2336100       2.2171900      -0.7816500
H        1.5358700       1.2223900      -1.1133200
H       -0.9381600       1.3208000      -1.3141700
H       -0.8683700      -1.4372600       1.3313700
H       -3.0320300       2.2501800      -2.2826600
H       -5.2456600       1.3838800      -1.5387800
H       -5.3757300      -0.4182800       0.1773100
H       -3.2830600      -1.3566800       1.1543100
H        3.1495600       2.4789000      -2.1753300
