13
dipolar_001158 reactant_2 (FRAG2 relaxed, reordered to d) type=dipolarophile
C        0.0098600       0.9926600      -0.1625000
Cl       2.1510800      -0.7551500      -0.4080600
C       -0.4560600      -0.9977300       0.8342700
C        0.6235200      -0.1623300       0.1036800
C       -1.5505300      -1.3521900      -0.2032700
C       -2.1518500      -0.1917700      -0.4781000
O       -1.1238600       0.0532000       1.5609100
C       -1.4164400       0.8530400       0.3991400
F        0.4114000       2.0299900      -0.8818700
H       -0.0875300      -1.7956900       1.4874000
H       -1.7173800      -2.3440000      -0.6213700
H       -2.9490700       0.0362800      -1.1842300
H       -1.9392000       1.7851900       0.6396800
