13
dipolar_001158 reactant_2 @ TS geom
C       -0.4023900       1.2572700      -0.1814700
Cl      -1.5017500       2.2720600      -1.0501000
C       -0.4407200       1.2565100       1.3701700
C        0.0662300       2.6362700       1.8603000
C        1.3755100       2.6518800       1.5815600
C        1.6624600       1.2793700       0.9273600
O        0.7230100       0.4350500       1.6248400
C        0.9692200       1.2980400      -0.4472000
F        1.5008200       1.9817900      -1.4550200
H       -1.3515900       0.8950600       1.8083500
H       -0.5158700       3.4088600       2.4290600
H        2.1582200       3.4147600       1.8535000
H        2.6781600       0.9105100       0.9476200
