38
dipolar_001158 TS complex (tags stripped)
C        3.6787300      -2.0313300       1.5388400
N        2.4875500      -1.8532600       0.7293900
C        2.5741200      -1.3764200      -0.5347700
O        3.6441000      -1.2584800      -1.1521900
C        1.3079400      -0.9265800      -1.1426600
C        1.2700300      -0.6421400      -2.5314500
N        1.2037500      -0.3547900      -3.6630300
O        0.1711600      -1.3657100      -0.5290700
C       -0.9844900      -0.7637900      -0.7463200
C       -2.0948800      -1.1487700       0.0995400
C       -1.8940300      -1.8502000       1.3085600
C       -2.9709300      -2.0903000       2.1590600
C       -4.2528800      -1.6359800       1.8206300
C       -4.4604100      -0.9544600       0.6158800
C       -3.3906900      -0.7146600      -0.2456300
C       -0.4023900       1.2572700      -0.1814700
Cl      -1.5017500       2.2720600      -1.0501000
C       -0.4407200       1.2565100       1.3701700
C        0.0662300       2.6362700       1.8603000
C        1.3755100       2.6518800       1.5815600
C        1.6624600       1.2793700       0.9273600
O        0.7230100       0.4350500       1.6248400
C        0.9692200       1.2980400      -0.4472000
F        1.5008200       1.9817900      -1.4550200
H        3.4293600      -2.5706500       2.4538500
H        4.4514200      -2.5555000       0.9914000
H        4.0976800      -1.0296000       1.8421100
H        1.6094200      -1.6927900       1.2175800
H       -1.1724300      -0.4389100      -1.7748300
H       -0.8974900      -2.2326400       1.5710700
H       -2.8131600      -2.6055600       3.1143000
H       -5.0840900      -1.7770100       2.5093000
H       -5.4489800      -0.5936300       0.3465500
H       -3.5374700      -0.2227300      -1.2057600
H       -1.3515900       0.8950600       1.8083500
H       -0.5158700       3.4088600       2.4290600
H        2.1582200       3.4147600       1.8535000
H        2.6781600       0.9105100       0.9476200
