26
dipolar_000298 reactant_2 @ TS geom
C       -1.3845900       1.7296600       3.7519800
O       -1.3695700       1.0972800       2.4859300
C       -0.1883100       0.3666200       2.2128600
C       -0.2405300      -1.0558000       2.8223100
C        0.8868900      -2.0122200       2.3747400
C        0.6476100      -2.8913000       1.1121800
C        1.3932600      -2.5449400      -0.1900300
C        0.6541100      -1.5034600      -1.1154100
C       -0.5937000      -2.0976000      -1.6459900
N       -1.5799600      -2.5772600      -2.0256300
C        1.5292700      -1.1641700      -2.2594700
N        2.2478300      -0.9126400      -3.1330400
C        0.3111900      -0.3516700      -0.2669300
C        0.0090400       0.1820000       0.7743800
H       -0.5148500       2.3940800       3.8896100
H       -1.3733300       0.9713500       4.5604300
H       -2.3046600       2.3124400       3.8297300
H        0.6847900       0.9131300       2.6052600
H       -1.2460400      -1.4564100       2.4368400
H       -0.3112400      -0.9379200       3.8477400
H        1.8152100      -1.4375400       2.2977400
H        0.9915000      -2.6853600       3.2127700
H       -0.3986800      -3.0143600       0.8970300
H        1.0592500      -3.8753600       1.3435900
H        1.6012300      -3.3661200      -0.8015200
H        2.3763400      -2.0100900       0.0411300
