16
dipolar_001780 reactant_1 @ TS geom
C       -0.9954600       0.0030400       2.4161600
C       -0.9524300       0.9333700       3.5049000
N       -1.1778300      -0.9265800       1.6908600
C       -1.3248800      -1.9683100       0.8543700
C       -2.4837400      -2.0230000       0.0607400
N       -3.4725000      -2.0931600      -0.5635800
C       -0.2854200      -2.9675600       0.7479200
O       -0.3465300      -3.9305300      -0.0081300
O        0.7411700      -2.7535700       1.5977500
C        1.7597500      -3.7577000       1.6303900
H       -0.7819800       0.3015900       4.3198600
H       -1.9250300       1.3964700       3.4719000
H       -0.1706800       1.7172400       3.3941000
H        2.2441600      -3.8636500       0.6530100
H        1.3304400      -4.7313700       1.9303000
H        2.4878100      -3.4281500       2.3819500
