16
dipolar_001780 reactant_1 (FRAG1 relaxed, reordered to d) type=dipole
C        2.5552400       1.6712600       0.5531100
C        1.1694500      -0.1481800      -0.0442700
N       -1.2295700       0.2265600       0.0677800
C       -2.0807700       0.9760200       0.3072300
C       -3.1508300       1.8944700       0.6007600
N       -0.6788100      -3.0142400      -0.9763700
C       -0.1928600      -0.6064900      -0.1978200
O        1.2413900       1.1342200       0.3705800
O        2.1576700      -0.8391900      -0.2638300
C       -0.4632000      -1.9205800      -0.6226600
H        3.1078700       1.1028100       1.3159200
H        2.4152000       2.7067400       0.8859700
H        3.1203600       1.6530800      -0.3906100
H       -4.1040300       1.3705300       0.4211900
H       -3.0936500       2.7719600      -0.0621300
H       -3.1064300       2.2088800       1.6551100
