45
dipolar_001780 TS complex (tags stripped)
C       -1.4780600       4.8525800       2.3964900
O       -0.4139600       4.0943000       1.8043900
C       -0.7544000       3.0211100       1.0945500
O       -1.9013900       2.6518600       0.9396500
C        0.4589600       2.3705100       0.4369800
C        1.7411200       2.4860400       1.2768200
C        0.5953600       3.0758100      -0.9620700
C        1.8655900       2.7721500      -1.7690400
C        2.2707400       1.3236600      -2.1010700
C        1.2099600       0.4339100      -2.7846900
C        0.6528100      -0.6607900      -1.8609200
Cl      -0.6825400      -1.5504300      -2.7096400
Cl       1.9901900      -1.8663700      -1.4777900
C        0.2364000       0.0085500      -0.6571300
C        0.2263600       0.9924500       0.0127800
C       -0.9954600       0.0030400       2.4161600
C       -0.9524300       0.9333700       3.5049000
N       -1.1778300      -0.9265800       1.6908600
C       -1.3248800      -1.9683100       0.8543700
C       -2.4837400      -2.0230000       0.0607400
N       -3.4725000      -2.0931600      -0.5635800
C       -0.2854200      -2.9675600       0.7479200
O       -0.3465300      -3.9305300      -0.0081300
O        0.7411700      -2.7535700       1.5977500
C        1.7597500      -3.7577000       1.6303900
H       -2.1645300       5.2138600       1.6185800
H       -0.9945000       5.6965500       2.9017100
H       -2.0239300       4.2346200       3.1183400
H        2.5545800       1.9224900       0.7909300
H        1.6045200       2.0695100       2.2841400
H        2.0287000       3.5316800       1.3514500
H       -0.3067900       2.7592300      -1.5429800
H        0.5252500       4.1233700      -0.7901000
H        2.7138400       3.2452800      -1.2530700
H        1.7369800       3.3151000      -2.7109500
H        2.6413300       0.8193600      -1.1838700
H        3.1367400       1.3770900      -2.7643800
H        0.3324800       1.0476800      -3.0764400
H        1.5845800      -0.0619000      -3.6524200
H       -0.7819800       0.3015900       4.3198600
H       -1.9250300       1.3964700       3.4719000
H       -0.1706800       1.7172400       3.3941000
H        2.2441600      -3.8636500       0.6530100
H        1.3304400      -4.7313700       1.9303000
H        2.4878100      -3.4281500       2.3819500
