27
dipolar_001930 reactant_1 (FRAG1 relaxed, reordered to d) type=dipolarophile
C       -1.2542200       1.5840300       1.7614700
N        2.2555400       0.6074500       1.6165100
C        0.1578700      -0.1640300       0.7525800
O        2.2537800      -0.7310200      -0.2289300
C        1.6420800      -0.1255600       0.6608800
C       -0.6790400       0.1463200       1.9888000
C       -1.9258400      -0.7135700       1.7056900
C       -0.7135100      -0.3363000      -0.2668200
C       -0.4275200      -0.4624600      -1.7309000
C       -2.1170200      -0.1523400       0.2834200
C        3.6906700       0.7854300       1.6905800
C       -2.2477100       1.3784500       0.5845300
F        0.4860200       0.4224700      -2.1756400
F        0.0144900      -1.6897100      -2.0711200
F       -1.5479100      -0.2448300      -2.4538100
H       -1.7718800       1.9223100       2.6707300
H       -0.4582800       2.3074200       1.5357700
H        1.6811900       1.0804500       2.3062900
H       -0.1744000       0.0015000       2.9516800
H       -1.7155700      -1.7928700       1.7173200
H       -2.7679700      -0.4872200       2.3765600
H       -2.9244500      -0.5674100      -0.3296600
H       -2.0058000       1.9847700      -0.2993900
H       -3.2806500       1.6094500       0.8831200
H        4.1580700       0.2341000       0.8666700
H        4.0878100       0.4037200       2.6445000
H        3.9609300       1.8496900       1.6046800
