27
dipolar_001930 reactant_1 @ TS geom
C        0.4078100       3.4193000       0.7498200
N       -0.2929100       2.1497300       0.7578100
C       -0.6025500       1.5355300      -0.4020200
O       -0.3938500       2.0524300      -1.5095200
C       -1.3688000       0.2507400      -0.2758100
C       -2.4502600       0.1099600       0.7947200
C       -3.6869300       0.7468800       0.0728000
C       -4.0265400      -0.3018500      -1.0266400
C       -2.9132800      -1.3863100      -0.8200300
C       -2.8222100      -1.3763800       0.7147600
C       -1.6595900      -0.6268700      -1.2291500
C       -1.1924800      -0.6780000      -2.6475000
F       -1.8977600       0.2311400      -3.3978600
F        0.1077600      -0.4071700      -2.8550100
F       -1.4260900      -1.8763600      -3.2265900
H        0.4230600       3.8428400       1.7590300
H       -0.1178000       4.1462800       0.0855600
H        1.4355800       3.3297000       0.3787200
H       -0.1855400       1.5706800       1.5871300
H       -2.2083300       0.5191300       1.7882200
H       -4.4806700       0.8693300       0.7589700
H       -3.3967400       1.7314100      -0.3558600
H       -3.9356500       0.1002100      -2.0567200
H       -4.9652600      -0.7519800      -0.8867200
H       -3.0774700      -2.3695400      -1.2928700
H       -3.7931700      -1.5754900       1.1846400
H       -2.0912900      -2.0671400       1.1798900
