53
dipolar_001930 TS complex (tags stripped)
C        0.4078100       3.4193000       0.7498200
N       -0.2929100       2.1497300       0.7578100
C       -0.6025500       1.5355300      -0.4020200
O       -0.3938500       2.0524300      -1.5095200
C       -1.3688000       0.2507400      -0.2758100
C       -2.4502600       0.1099600       0.7947200
C       -3.6869300       0.7468800       0.0728000
C       -4.0265400      -0.3018500      -1.0266400
C       -2.9132800      -1.3863100      -0.8200300
C       -2.8222100      -1.3763800       0.7147600
C       -1.6595900      -0.6268700      -1.2291500
C       -1.1924800      -0.6780000      -2.6475000
F       -1.8977600       0.2311400      -3.3978600
F        0.1077600      -0.4071700      -2.8550100
F       -1.4260900      -1.8763600      -3.2265900
C        0.1755900      -2.5753600      -0.5298300
N        1.1775000      -1.7660800      -0.3713400
C        2.2866000      -1.9687200      -1.3374500
C        1.2788200      -0.7872000       0.6245900
C        0.6006500      -0.9472800       1.8808900
C        0.3131800      -2.3218800       2.4607300
O        0.3683100       0.0292800       2.6339000
C        2.2224900       0.3324400       0.4297600
C        2.9748500       0.8027200       1.5292400
C        3.9199300       1.8143100       1.3823700
C        4.1544400       2.3898000       0.1274900
C        3.4121300       1.9478200      -0.9693900
C        2.4515300       0.9449600      -0.8187200
H        0.4230600       3.8428400       1.7590300
H       -0.1178000       4.1462800       0.0855600
H        1.4355800       3.3297000       0.3787200
H       -0.1855400       1.5706800       1.5871300
H       -2.2083300       0.5191300       1.7882200
H       -4.4806700       0.8693300       0.7589700
H       -3.3967400       1.7314100      -0.3558600
H       -3.9356500       0.1002100      -2.0567200
H       -4.9652600      -0.7519800      -0.8867200
H       -3.0774700      -2.3695400      -1.2928700
H       -3.7931700      -1.5754900       1.1846400
H       -2.0912900      -2.0671400       1.1798900
H       -0.7225600      -2.5108000       0.1790200
H        0.0581200      -3.2035800      -1.3720600
H        3.1792200      -1.6303200      -0.8909500
H        2.2963300      -3.0507600      -1.5111400
H        2.0747400      -1.4607500      -2.2898600
H        0.9024800      -2.3666800       3.3822300
H        0.6108200      -3.1466300       1.8019000
H       -0.7397400      -2.4256300       2.7374600
H        2.8024600       0.3579900       2.5137400
H        4.4870200       2.1326300       2.2552200
H        4.9014200       3.1670000       0.0166700
H        3.5692400       2.3941200      -1.9527900
H        1.8579800       0.6532000      -1.6873700
