30
dipolar_000160 TS complex (tags stripped)
C        3.6993700       0.5656100      -0.1081500
O        2.2818200       0.4924200       0.0583600
C        1.7340800      -0.7394000       0.0770800
O        2.4170500      -1.7515500      -0.0442700
C        0.2986300      -0.7485400       0.3378600
O        0.5051400      -0.1266300      -2.3118300
N       -0.2463700       0.7491000      -1.9126100
C       -0.9701300       1.5486600      -1.4208000
C       -1.8687200       2.6074200      -1.0238600
C       -0.4955400       0.1566600       0.8532200
Cl      -0.0764100       1.7002100       1.5599100
C       -1.8924900      -0.4192900       1.0602600
C       -2.6056900      -0.9148700      -0.2403300
C       -1.6490000      -2.0175000      -0.7725200
C       -0.5350200      -2.0444000       0.3085700
C       -1.3669100      -1.7850900       1.5930700
H        3.9556100       1.6333100      -0.0646500
H        3.9990600       0.1482100      -1.0802800
H        4.2234600       0.0236200       0.6945400
H       -1.3323000       3.3479400      -0.4296400
H       -2.1554500       2.9773300      -1.9829700
H       -2.7320700       2.2388400      -0.4539700
H       -2.5190300       0.2064800       1.6937000
H       -3.5841000      -1.3556700       0.0672400
H       -2.8324200      -0.1401500      -0.9755600
H       -2.1452500      -3.0091200      -0.7957000
H       -1.2672400      -1.8113600      -1.7737100
H        0.1066700      -2.9269900       0.2810700
H       -2.1201400      -2.4871500       1.8033500
H       -0.6992100      -1.6000700       2.4697100
