! wB97X-3c Opt TightSCF
%pal nprocs 8 end
%maxcore 4000
%geom
  MaxIter 200
  Scan B 0 8 = 4.0, 1.8, 23 end
end
* xyzfile 0 1 reactant.xyz
