23
dipolar_001294 reactant_1 (FRAG1 relaxed, reordered to d) type=dipolarophile
C        0.0375200      -0.5526900       0.5517100
C        0.8211800      -1.1517700       1.7632800
C       -1.4087400      -0.3714400       0.5414600
C       -2.1219800      -0.4120200       1.7584700
C       -3.5037500      -0.2188100       1.7846000
C        1.5134200       0.0236100       2.4866400
C        2.4810200       0.4153400       1.6525500
C        1.0344400      -0.1770700      -0.2743200
C       -2.1323500      -0.1502200      -0.6497500
C       -3.5139100       0.0337900      -0.6192200
C        2.3582600      -0.5356800       0.4383700
O        1.9443000      -1.7453600       1.0877100
C       -4.2064200       0.0053600       0.5968600
Br       1.0190800       0.8328700      -1.8547300
H       -1.6107900      -0.1371100      -1.6064900
H       -1.5887400      -0.5828600       2.6954800
H        0.2796900      -1.8803100       2.3747700
H        1.1994000       0.4437400       3.4413700
H        3.1816900       1.2457900       1.7304200
H        3.2393400      -0.6747800      -0.1970800
H       -4.0557900       0.1979600      -1.5536700
H       -5.2887400       0.1522400       0.6169100
H       -4.0346100      -0.2459200       2.7390700
