23
dipolar_001294 reactant_1 @ TS geom
C       -1.0583400       0.6137400       0.1347200
C       -1.8671900      -0.5698100      -0.1191700
C       -3.2723500      -0.4559600      -0.0673200
C       -4.0828000      -1.5878000      -0.1452600
C       -3.5113100      -2.8540700      -0.3044500
C       -2.1190200      -2.9755500      -0.4014100
C       -1.3012600      -1.8495000      -0.3148700
C       -1.5773800       2.0710000      -0.0700400
C       -1.9290500       2.5277100       1.3713900
C       -0.7487000       2.6734500       1.9797100
C        0.2982700       2.3065200       0.8933100
O       -0.3534200       2.7901900      -0.2850400
C        0.0985500       0.7869900       0.7144800
Br       1.0887700      -0.4312100       1.7682200
H       -3.7209200       0.5293500       0.0669200
H       -5.1616700      -1.4701400      -0.0705700
H       -4.1512000      -3.7353000      -0.3621500
H       -1.6699500      -3.9623800      -0.5405000
H       -0.2207300      -1.9565400      -0.4266300
H       -2.3150500       2.2844600      -0.8673200
H       -2.9236700       2.5427700       1.7734000
H       -0.5063200       2.8365600       3.0110000
H        1.3207400       2.7119600       0.9873900
