15
dipolar_001294 reactant_2 (FRAG2 relaxed, reordered to d) type=dipole
C       -3.4647000       0.6589200      -0.6065900
O        1.0214200       0.6531800      -0.4173200
C       -2.2529400       0.0369300      -0.1247400
O        2.2164000      -0.9017200       0.7320700
C       -0.1416400      -1.0238000       0.7111000
N       -1.2838900      -0.4705300       0.2741600
C        1.1185600      -0.4637200       0.3735400
C        2.2509900       1.2673000      -0.7922800
H       -3.3517800       0.9260500      -1.6694800
H       -3.7185500       1.5578400      -0.0225400
H       -4.2863600      -0.0707600      -0.5208700
H       -0.2140500      -1.9138200       1.3337000
H        2.8815600       0.5793100      -1.3771500
H        2.8182400       1.6021900       0.0902900
H        1.9849000       2.1354500      -1.4091500
