20
dipolar_000876 reactant_1 @ TS geom
C        4.0818500      -1.2633300      -1.6070000
N        2.7019900      -1.5135900      -1.2368400
C        2.2551800      -1.2634900       0.0033400
O        2.9832400      -1.0542900       0.9766300
C        0.7367200      -1.1602300       0.1102200
N        0.2973100      -1.1849500       1.4407100
C       -1.0511400      -0.6618500       1.4921700
C       -2.1624600      -1.6721800       1.2747200
C       -1.9416000      -2.8908000       0.4205300
O       -3.2795800      -1.3891400       1.6860000
H        4.2711700      -0.1749000      -1.6752900
H        4.7568900      -1.6854300      -0.8572900
H        4.2792600      -1.7208900      -2.5779700
H        1.9951700      -1.5051100      -1.9619200
H        0.2015700      -1.8801000      -0.5490400
H        0.9896000      -0.7456200       2.0653700
H       -1.1701600      -0.2677900       2.5672700
H       -1.0243800      -3.4405300       0.6530300
H       -2.8168100      -3.5388800       0.4948400
H       -1.8642700      -2.5446800      -0.6387400
