44
dipolar_000876 TS complex (tags stripped)
C        4.0818500      -1.2633300      -1.6070000
N        2.7019900      -1.5135900      -1.2368400
C        2.2551800      -1.2634900       0.0033400
O        2.9832400      -1.0542900       0.9766300
C        0.7367200      -1.1602300       0.1102200
N        0.2973100      -1.1849500       1.4407100
C       -1.0511400      -0.6618500       1.4921700
C       -2.1624600      -1.6721800       1.2747200
C       -1.9416000      -2.8908000       0.4205300
O       -3.2795800      -1.3891400       1.6860000
C       -1.2818500       0.4878200       0.1350600
O       -1.4998100       1.8143700       0.5641700
C       -2.3062200       1.9404600       1.7465100
O       -2.3562900       0.0842800      -0.7116300
C       -3.4613100       0.9492400      -0.9938100
C        0.0518300       0.3293100      -0.6622400
O       -0.0396100      -0.0270500      -2.0164400
C       -0.4470100       0.9167400      -3.0113100
C        1.1570600       1.2977800      -0.3835800
O        2.0266000       1.6068800      -1.1850100
O        1.2024500       1.6438800       0.9120900
C        2.3868100       2.3168400       1.3560000
H        4.2711700      -0.1749000      -1.6752900
H        4.7568900      -1.6854300      -0.8572900
H        4.2792600      -1.7208900      -2.5779700
H        1.9951700      -1.5051100      -1.9619200
H        0.2015700      -1.8801000      -0.5490400
H        0.9896000      -0.7456200       2.0653700
H       -1.1701600      -0.2677900       2.5672700
H       -1.0243800      -3.4405300       0.6530300
H       -2.8168100      -3.5388800       0.4948400
H       -1.8642700      -2.5446800      -0.6387400
H       -2.8916400       2.8474600       1.6952200
H       -3.0006000       1.0602200       1.8351000
H       -1.6640300       1.9419200       2.6407200
H       -3.1763000       1.9177200      -1.4199300
H       -4.0736900       0.4012100      -1.7516100
H       -4.1168600       1.1186300      -0.1146200
H       -1.4813200       1.2359500      -2.8885600
H       -0.3776100       0.3562400      -3.9910400
H        0.2232700       1.7743700      -3.0741400
H        3.2681300       1.6805300       1.1928700
H        2.2440200       2.4977600       2.4258500
H        2.5128400       3.2676700       0.8219500
