19
dipolar_000418 reactant_2 (FRAG2 relaxed, reordered to d) type=dipole
C        2.0153100       1.4912500      -1.3881000
N        0.7733300       0.3108300       0.3025900
C       -0.2902100       0.2319400       0.9277400
O       -1.2881800      -1.8925000       1.1183500
C        1.8890800       0.4770000      -0.2878200
N       -2.3382600      -0.3452800      -0.1945500
C        3.0884200      -0.3351600       0.1067200
C       -1.3305700      -0.7689000       0.5953500
C       -2.3547100       0.9264200      -0.8943900
H       -1.9842300       1.7288400      -0.2385900
H        1.0579400       1.9926500      -1.5855500
H        2.7704900       2.2495800      -1.1187600
H        2.3625100       1.0041900      -2.3148900
H        3.4492000      -0.9231900      -0.7542600
H        2.8578700      -1.0200900       0.9337200
H       -1.7354100       0.9152800      -1.8068000
H       -3.0642300      -1.0296300      -0.3922300
H       -3.3870000       1.1681100      -1.1785800
H        3.9129700       0.3324700       0.4098400
