33
dipolar_001250 reactant_1 (FRAG1 relaxed, reordered to d) type=dipolarophile
C       -3.4724000       1.0762700       0.3833100
N        2.2055700      -1.8957300      -1.9808700
C        1.2586700      -1.0637800      -1.5127800
O        0.7028800      -0.2246900      -2.2317000
C        1.2622000       1.3337900       0.6916000
C       -1.2625400       2.0130300       1.1979100
C        0.1804600       1.8054700       1.7062100
C       -2.2201600       0.7779700       1.2227000
C        1.7735100      -0.1194700       0.7854700
C        0.9609700      -1.1908400      -0.0151100
C       -0.4460700      -0.9400200       0.2831200
C       -1.4173400      -0.3129900       0.6528800
C        2.6680200      -1.8362600      -3.3540700
C       -2.6327200       0.4368700       2.6666300
H       -3.2059200       1.2816200      -0.6647900
H        1.8396200      -2.0061600      -4.0596600
H       -1.2221000       2.3932200       0.1633600
H       -3.9950400       1.9583700       0.7860300
H        0.9244600       1.5355900      -0.3376200
H       -1.7485200       2.7999000       1.7996200
H       -4.1709300       0.2252800       0.4022500
H        0.5099100       2.7828200       2.0933200
H        0.1769300       1.1362400       2.5833300
H       -1.7542700       0.2553300       3.3036400
H       -3.2077800       1.2714600       3.0981100
H        1.7864400      -0.4366300       1.8406400
H        2.8158400      -0.1672800       0.4311800
H        1.2828900      -2.1885800       0.3204200
H        2.6271400      -2.5656300      -1.3466200
H       -3.2631900      -0.4653000       2.6905200
H        3.4270200      -2.6128200      -3.5078500
H        2.1462000       1.9736500       0.8413700
H        3.1125700      -0.8549500      -3.5853200
