20
dipolar_001250 reactant_2 @ TS geom
C       -2.9397900      -2.0501600       2.7824100
C       -2.6305800      -1.0588600       1.8058000
C       -1.3687600      -0.2484600       1.9786200
O       -3.3919300      -0.8305300       0.8397700
C       -2.4389600      -2.2103400       4.1154800
C       -3.2333400      -3.0484900       5.0986800
O       -1.3680700      -1.6948400       4.4892100
O       -4.1102500      -2.8130200       2.5523700
C       -4.4094600      -3.4062300       1.4814900
C       -3.6155900      -3.5506800       0.2524800
H       -0.4842700      -0.8968800       1.8320500
H       -1.3717800       0.5407400       1.2273900
H       -1.2896500       0.1657200       2.9912200
H       -2.8752000      -2.8041900       6.1173900
H       -3.0636400      -4.1182700       4.9231400
H       -4.3118200      -2.8665500       5.0327800
H       -5.3059000      -4.0765500       1.6165100
H       -4.0726000      -2.7789200      -0.3297200
H       -2.5453700      -3.4063800       0.3512300
H       -3.8056900      -4.5514700      -0.2496800
