13
dipolar_001156 reactant_2 @ TS geom
C        0.5909100      -0.6072500      -1.3311400
C        0.8698500      -2.1358700      -1.5240500
O       -0.2052200      -2.5170900      -2.4257300
C       -1.2704800      -2.0298800      -1.5797200
C       -0.9164200      -2.7511500      -0.2819900
F       -1.7972100      -3.0992100       0.6450300
C        0.4169900      -2.8261100      -0.2463900
Cl       1.4616700      -3.3213200       1.0237200
C       -0.8300700      -0.5258100      -1.4551500
H        1.2891100       0.0841400      -1.8676000
H        1.8556100      -2.4675900      -1.9423800
H       -2.2637800      -2.2538500      -2.0149200
H       -1.4031600       0.2425900      -1.9887200
