13
dipolar_001156 reactant_2 (FRAG2 relaxed, reordered to d) type=dipolarophile
C        0.6186200       0.1841200      -0.0971700
C       -1.3600700      -0.9506500      -0.3738100
O       -1.0652000      -0.2303100      -1.5857700
C       -0.4729500       0.9056800      -0.9249300
C       -2.1732400       0.1217000       0.3947000
F        0.4751800      -1.9328000       1.0522700
C        0.0509900      -0.9756900       0.2406500
Cl       2.0973000       0.8908700       0.4137200
C       -1.6180400       1.2855000       0.0469700
H       -0.1195600       1.6672500      -1.6278500
H       -1.8302300      -1.9232400      -0.5556700
H       -1.8452800       2.2973500       0.3799000
H       -2.9824500      -0.0897900       1.0923100
