25
dipolar_001156 reactant_1 (FRAG1 relaxed, reordered to d) type=dipole
C        3.8148300       1.4282600       1.2328800
N        2.6280700       0.7561300       0.7471900
C        1.4292700      -1.1149000      -0.1565200
O        3.7436400      -1.1592500       0.2156700
C        1.3518200      -2.4184900      -0.6516800
C        2.6777000      -0.5147000       0.2799600
N        1.2452100      -3.5076500      -1.0729100
O        0.3027100      -0.3510400      -0.0674900
C       -0.9056800      -0.6490300      -0.3762900
C       -1.9416000       0.3219800      -0.2149800
C       -1.6856400       1.6245800       0.2769500
C       -2.7310500       2.5297100       0.4072700
C       -4.0373900       2.1574400       0.0534900
C       -4.2987700       0.8711500      -0.4330900
C       -3.2602000      -0.0455000      -0.5686700
H       -0.6674000       1.9088800       0.5485800
H        1.7321600       1.2262400       0.8104400
H        4.6037800       1.4546500       0.4646400
H       -1.1150300      -1.6519100      -0.7656600
H       -3.4519900      -1.0515900      -0.9484300
H        3.5526100       2.4597300       1.4990500
H       -2.5349100       3.5351200       0.7855200
H       -4.8534300       2.8759300       0.1581400
H       -5.3162900       0.5856500      -0.7074800
H        4.2332500       0.9325400       2.1250700
