19
dipolar_000331 reactant_2 @ TS geom
C        4.5836200      -0.3059600      -0.4887000
N        3.2183200       0.1277900      -0.3063200
C        2.3696400      -0.5429500       0.4961000
O        2.6579100      -1.5907000       1.1021300
C        1.0735200       0.0780400       0.6873100
N        0.1974200      -0.2460400       1.6270800
C       -0.8059700       0.6533400       1.7017300
C       -1.9309700       0.6238600       2.6620000
C       -0.5076200       1.6647000       0.7525400
O       -1.0313100       2.7301800       0.4395800
O        0.6906600       1.2345100       0.1346000
H        5.0799500      -0.4114800       0.4924400
H        4.6305100      -1.2652000      -1.0065000
H        5.1099600       0.4564000      -1.0701400
H        2.8615200       0.9399300      -0.8111400
H        0.2690900      -1.1250500       2.1720600
H       -1.6265100       1.1421700       3.5656200
H       -2.2300800      -0.4024500       2.9093300
H       -2.7895400       1.1544800       2.2204700
