19
dipolar_000331 reactant_2 (FRAG2 relaxed, reordered to d) type=dipole
C        3.9322800      -0.1582200       0.2354400
N        2.5330300      -0.0829900      -0.1290700
C        0.1804400      -0.0153900       0.2034900
O       -0.1232000       0.0681100      -1.0898700
C        1.5315500      -0.1016700       0.7704700
N       -0.9363700      -0.0140200       0.9120400
C       -2.0390600       0.0697900       0.1017100
C       -3.4449500       0.0970600       0.5768300
C       -1.5605500       0.1277600      -1.2248600
O        1.6674500      -0.1850700       1.9992500
O       -2.0660900       0.2067800      -2.3383800
H        2.2894800      -0.0105600      -1.1129200
H        4.4101400      -1.0388800      -0.2213300
H        4.4738700       0.7415900      -0.0959400
H        4.0123400      -0.2376500       1.3256300
H       -0.9384300      -0.0757900       1.9312400
H       -3.6947700      -0.7929600       1.1781400
H       -3.6582500       0.9877800       1.1919000
H       -4.1128700       0.1186300      -0.2954800
