39
dipolar_000331 TS complex (tags stripped)
C        4.5836200      -0.3059600      -0.4887000
N        3.2183200       0.1277900      -0.3063200
C        2.3696400      -0.5429500       0.4961000
O        2.6579100      -1.5907000       1.1021300
C        1.0735200       0.0780400       0.6873100
N        0.1974200      -0.2460400       1.6270800
C       -0.8059700       0.6533400       1.7017300
C       -1.9309700       0.6238600       2.6620000
C       -0.5076200       1.6647000       0.7525400
O       -1.0313100       2.7301800       0.4395800
O        0.6906600       1.2345100       0.1346000
C       -1.4914700      -0.7631000      -0.6807100
C       -2.2938900      -1.6498100       0.2584700
C       -2.1878900       0.4239900      -1.2534500
C       -3.6471300       0.6386700      -0.9091100
O       -1.6514400       1.2089900      -2.0355100
C       -0.3244700      -1.2220900      -1.1654000
C        0.5079800      -0.5593000      -2.2497300
C        0.2133600      -2.5649100      -0.7053100
H        5.0799500      -0.4114800       0.4924400
H        4.6305100      -1.2652000      -1.0065000
H        5.1099600       0.4564000      -1.0701400
H        2.8615200       0.9399300      -0.8111400
H        0.2690900      -1.1250500       2.1720600
H       -1.6265100       1.1421700       3.5656200
H       -2.2300800      -0.4024500       2.9093300
H       -2.7895400       1.1544800       2.2204700
H       -2.6282000      -2.5184400      -0.3326600
H       -3.1790400      -1.1766800       0.6903500
H       -1.6963200      -2.0519300       1.0860800
H       -4.0157600       1.4963900      -1.4859800
H       -3.7940800       0.8304600       0.1617300
H       -4.2516800      -0.2534100      -1.1643400
H        0.5711300       0.5330000      -2.2372200
H        1.5252300      -0.9778600      -2.3059400
H       -0.0471000      -0.8621000      -3.1256500
H        0.0691600      -2.8278200       0.3609400
H        1.2802000      -2.7114100      -0.9326500
H       -0.3781000      -3.2304600      -1.3051200
