18
dipolar_002209 reactant_2 @ TS geom
C        0.5716200       0.9892800      -0.6488900
C        1.6518100       1.0461000       0.4571400
O        1.0595300       0.2372900       1.4857500
C        0.7601000      -0.8692800       0.6361400
C        2.1624000      -1.1254800       0.0389700
Br       2.6083900      -2.8175700      -0.6170000
C        2.7500900       0.0829500      -0.0678100
C        3.9338300       0.5953500      -0.7525300
C        4.9557800      -0.3726800      -1.2761700
O        4.0579700       1.8120800      -0.8955700
C        0.0193700      -0.1792900      -0.5389500
H        0.4219500       1.7728600      -1.3668100
H        2.0023200       2.0115900       0.8582800
H        0.3079900      -1.7122300       1.1997000
H        5.2213000      -1.0998400      -0.4935900
H        5.8298400       0.1795100      -1.6067200
H        4.5290000      -0.9428400      -2.1182400
H       -0.7655800      -0.6682200      -1.1211800
