65
dipolar_002653 TS complex (tags stripped)
C        1.9807700       0.6389000      -4.3906200
N        1.8597300       0.0448200      -3.0854000
C        1.2099800       0.6165700      -2.0578100
O        0.7344000       1.7537400      -2.1047900
C        1.2901700      -0.3188300      -0.8662000
C        2.6016600      -0.4193600      -0.2259400
C        3.5278900       0.6469900      -0.3421600
C        4.7980800       0.5558200       0.2252900
C        5.1829800      -0.5931900       0.9260700
C        4.2708000      -1.6451000       1.0663200
C        2.9994700      -1.5608900       0.5038100
N        0.2972900      -1.0978600      -0.4204500
C       -1.0609100      -1.2367100      -0.5536900
C       -1.8286000      -0.6439600      -1.6171600
O       -3.0469200      -0.4912800      -1.6316800
O       -1.0600200      -0.3755800      -2.6974000
C       -1.6957800       0.1434400      -3.8597100
C       -1.7134900      -2.1234900       0.4240600
C       -1.0691300      -3.3046500       0.8471300
C       -1.6777300      -4.1789300       1.7467400
C       -2.9542600      -3.9033700       2.2452600
C       -3.6033700      -2.7309900       1.8428300
C       -2.9959900      -1.8470700       0.9495700
C       -0.9293000       1.2583100       1.0173200
C       -2.0756500       1.7801800       0.2423500
O       -3.2332700       1.7400600       0.7109200
N       -1.8139400       2.3833100      -0.9376600
C       -2.8795400       2.9435800      -1.7366000
C       -1.1247500       0.6630200       2.4066700
C       -0.9494500       1.9185200       3.3188500
C        0.5581500       2.2694500       3.1418500
C        1.0619900       1.1515500       2.1636500
C        0.2207500      -0.0437100       2.6481200
C        0.3469700       1.5537000       0.9019100
H        1.2064200       1.3844600      -4.4957500
H        1.8449600      -0.1702600      -5.1129400
H        2.9651200       1.0798100      -4.4995400
H        2.2488600      -0.8730600      -2.8604500
H        3.2551000       1.5821200      -0.8436500
H        5.5161600       1.3845100       0.1168600
H        6.1895000      -0.6856200       1.3483100
H        4.5525000      -2.5589200       1.5813500
H        2.3209300      -2.3965300       0.6099900
H        0.6514600      -1.7472200       0.2744700
H       -2.5637000      -0.4843200      -4.1231000
H       -0.9373200       0.0851500      -4.6397200
H       -2.0155800       1.1710500      -3.6990000
H       -0.0924900      -3.5496000       0.4335600
H       -1.1553300      -5.0892700       2.0168300
H       -3.4329800      -4.6020900       2.9278200
H       -4.6016200      -2.5026400       2.2390100
H       -3.5105000      -0.9151400       0.6923700
H       -0.8896900       2.2398700      -1.3657000
H       -3.6026400       2.1855900      -2.0469400
H       -3.4248400       3.7202500      -1.1643300
H       -2.4435500       3.4193800      -2.6231700
H       -2.0349600       0.0616500       2.5722600
H       -1.6266300       2.7147400       2.9341700
H       -1.1799900       1.6812200       4.3095800
H        1.0971900       2.2271500       4.0298300
H        0.7164400       3.2535300       2.6297300
H        2.1546800       1.0037600       2.1068400
H        0.3703400      -0.9953900       2.0853300
H        0.3922100      -0.2706100       3.7080000
H        0.8035800       2.1500100       0.0932900
