28
dipolar_001938 reactant_1 @ TS geom
C       -0.0649200       1.1406900      -0.7732000
O        0.8818100       0.8980600      -1.7541500
C        1.0803500      -0.3935900      -2.3400200
C        0.4375200       2.2665700       0.1280300
O        0.6977800       2.1975800       1.3267500
N        0.6145000       3.3943800      -0.5922200
C        1.0736400       4.6256000      -0.0000800
C       -1.2735800       0.5958600      -0.6984300
O       -1.6569500      -0.4001000      -1.5848900
C       -2.1890200       0.1256000      -2.7919700
C       -2.3286000       1.0637700       0.2451900
O       -2.1813500       2.0537800       0.9809900
N       -3.5056700       0.4007700       0.1693800
C       -4.6219300       0.7693500       1.0134000
H        2.0984100      -0.3255900      -2.8142800
H        1.1146900      -1.1959400      -1.5971700
H        0.3614500      -0.6383300      -3.1221200
H        0.4175400       3.2764600      -1.5810000
H        0.3320500       4.9714100       0.7255200
H        2.0269000       4.4825600       0.4749500
H        1.1419400       5.3326500      -0.8266300
H       -3.0814900       0.7127800      -2.5448700
H       -1.4274700       0.8186800      -3.2301100
H       -2.3884000      -0.6858900      -3.4298300
H       -3.4997200      -0.5225700      -0.2390300
H       -5.5184100       0.2339000       0.6866200
H       -4.8267500       1.8619800       0.9260200
H       -4.4308200       0.5572400       2.0687100
