26
dipolar_001938 reactant_2 @ TS geom
C       -1.3449200      -3.9124200      -1.2065700
N       -0.7666100      -3.1108300      -0.1493000
C       -1.5476700      -2.4051600       0.7109200
O       -2.7834000      -2.5791100       0.7524800
C       -0.8867300      -1.4289500       1.5884800
C       -1.6082600      -0.7792600       2.7366300
N        0.3036000      -1.0179600       1.2564600
C        1.3077800      -0.4799900       0.8439900
C        2.7308200      -0.4655600       0.8860100
C        3.4489600       0.4611100       0.1001900
C        4.8405300       0.4760700       0.1608200
C        5.5109400      -0.4249000       0.9970200
C        4.7978400      -1.3464500       1.7744200
C        3.4087400      -1.3691700       1.7216000
H       -1.8311900      -3.3206900      -1.9784900
H       -0.5405500      -4.5178700      -1.6614200
H       -2.0871100      -4.6106500      -0.7745200
H        0.2095600      -2.8349000      -0.2408900
H       -1.3379200      -1.2782600       3.6317600
H       -2.6916400      -0.8599700       2.5559900
H       -1.3541700       0.3055200       2.8066200
H        2.9286600       1.1840700      -0.5905400
H        5.4154000       1.1918100      -0.4429400
H        6.5746800      -0.4238600       1.0573200
H        5.2550100      -2.0411700       2.4169800
H        2.7654800      -2.0378400       2.2799600
