21
dipolar_001058 reactant_1 @ TS geom
C        1.8542700      -0.5967000       0.2049100
C        1.8524400      -1.5654700       1.2436500
N        1.9127900      -2.4103400       2.0530700
C        2.9251900       0.4857700       0.0715300
C        3.9093600      -0.2003000      -0.9314600
C        3.0768400      -0.2421900      -2.2479200
C        1.7189500       0.4137800      -1.8310400
C        2.2177300       1.4930300      -0.8500500
C        1.1605000      -0.6562100      -0.9098400
C        0.2738600      -1.7677800      -1.3823800
H        3.3821900       0.8912700       0.9954000
H        4.1368900      -1.2259900      -0.5456600
H        4.7980000       0.3502300      -1.0328400
H        2.8795500      -1.2726300      -2.6116300
H        3.5191100       0.3338400      -3.0180700
H        1.0614900       0.7476000      -2.6491400
H        1.4385700       2.1008200      -0.3630500
H        2.9351600       2.1894800      -1.3361100
H       -0.5425400      -1.4724500      -2.0146700
H       -0.1029100      -2.3774500      -0.5368200
H        0.9688700      -2.3997200      -1.9548000
