24
dipolar_001058 reactant_2 @ TS geom
C       -0.8083500       3.7950200      -1.8233400
N       -1.0148700       2.8144500      -0.7802900
C       -1.3072800       1.5314000      -1.0660000
O       -1.5249100       1.1347900      -2.2142300
C       -1.3708200       0.6170800       0.1320100
C       -2.1571800      -0.6133400       0.1961300
C       -3.0967700      -0.9267800      -0.8040300
C       -3.8739200      -2.0786900      -0.6963800
C       -3.7298700      -2.9331700       0.4001800
C       -2.7841300      -2.6364600       1.3891500
C       -2.0009800      -1.4909900       1.2896700
N       -0.5628700       0.8897600       1.0933800
C        0.3780500       0.9350100       1.8826100
C        0.9887100       1.3523900       3.0036600
N        1.6912400       1.6120300       3.9212800
H        0.1008400       3.5915300      -2.3944500
H       -0.7317000       4.7795800      -1.3474100
H       -1.6673600       3.7977900      -2.5110100
H       -0.7909500       3.0503500       0.1809400
H       -3.1896500      -0.2741800      -1.6719900
H       -4.6060300      -2.2908500      -1.4712000
H       -4.3562900      -3.8158300       0.4892200
H       -2.6674700      -3.2872000       2.2537100
H       -1.2575900      -1.2793000       2.0641400
