45
dipolar_001058 TS complex (tags stripped)
C       -0.8083500       3.7950200      -1.8233400
N       -1.0148700       2.8144500      -0.7802900
C       -1.3072800       1.5314000      -1.0660000
O       -1.5249100       1.1347900      -2.2142300
C       -1.3708200       0.6170800       0.1320100
C       -2.1571800      -0.6133400       0.1961300
C       -3.0967700      -0.9267800      -0.8040300
C       -3.8739200      -2.0786900      -0.6963800
C       -3.7298700      -2.9331700       0.4001800
C       -2.7841300      -2.6364600       1.3891500
C       -2.0009800      -1.4909900       1.2896700
N       -0.5628700       0.8897600       1.0933800
C        0.3780500       0.9350100       1.8826100
C        0.9887100       1.3523900       3.0036600
N        1.6912400       1.6120300       3.9212800
C        1.8542700      -0.5967000       0.2049100
C        1.8524400      -1.5654700       1.2436500
N        1.9127900      -2.4103400       2.0530700
C        2.9251900       0.4857700       0.0715300
C        3.9093600      -0.2003000      -0.9314600
C        3.0768400      -0.2421900      -2.2479200
C        1.7189500       0.4137800      -1.8310400
C        2.2177300       1.4930300      -0.8500500
C        1.1605000      -0.6562100      -0.9098400
C        0.2738600      -1.7677800      -1.3823800
H        0.1008400       3.5915300      -2.3944500
H       -0.7317000       4.7795800      -1.3474100
H       -1.6673600       3.7977900      -2.5110100
H       -0.7909500       3.0503500       0.1809400
H       -3.1896500      -0.2741800      -1.6719900
H       -4.6060300      -2.2908500      -1.4712000
H       -4.3562900      -3.8158300       0.4892200
H       -2.6674700      -3.2872000       2.2537100
H       -1.2575900      -1.2793000       2.0641400
H        3.3821900       0.8912700       0.9954000
H        4.1368900      -1.2259900      -0.5456600
H        4.7980000       0.3502300      -1.0328400
H        2.8795500      -1.2726300      -2.6116300
H        3.5191100       0.3338400      -3.0180700
H        1.0614900       0.7476000      -2.6491400
H        1.4385700       2.1008200      -0.3630500
H        2.9351600       2.1894800      -1.3361100
H       -0.5425400      -1.4724500      -2.0146700
H       -0.1029100      -2.3774500      -0.5368200
H        0.9688700      -2.3997200      -1.9548000
