29
dipolar_002457 reactant_2 @ TS geom
C       -0.5798400      -1.1110900      -0.7562000
C       -1.7356800      -1.7018000      -0.0904400
C       -1.6656800      -2.2625300       1.2024300
C       -2.7614100      -2.9232600       1.7478800
C       -3.9548500      -3.0360300       1.0250300
C       -4.0445100      -2.4652700      -0.2463800
C       -2.9508800      -1.7970800      -0.7949100
C       -0.6642300      -0.6564000      -2.2518500
C       -0.2163700      -1.9086100      -3.0381700
C        1.0968100      -2.0058700      -2.8055900
C        1.4156200      -0.8163900      -1.8715000
O        0.4986900       0.1662500      -2.3561200
C        0.7282600      -1.2113700      -0.5315900
C        1.5124900      -1.9168500       0.4838800
O        1.3718900      -1.9481200       1.6954000
O        2.4569900      -2.6535800      -0.1463500
C        3.2963200      -3.4626700       0.6649300
H       -0.7401100      -2.1699300       1.7851000
H       -2.6702400      -3.3581100       2.7397900
H       -4.7978600      -3.5630100       1.4444400
H       -4.9488600      -2.5388800      -0.8304000
H       -3.0299300      -1.3493900      -1.7871100
H       -1.5552100      -0.1139300      -2.5819700
H       -0.8853900      -2.5966700      -3.4865000
H        1.8014100      -2.7813800      -3.0136200
H        2.4571300      -0.4087300      -1.8508700
H        3.8755000      -2.8377600       1.3245500
H        2.6736600      -4.1701000       1.2404300
H        3.9182100      -4.0011400      -0.0508700
