29
dipolar_002457 reactant_2 (FRAG2 relaxed, reordered to d) type=dipolarophile
C       -0.9712700      -0.0425600       0.5470300
C        0.2156800      -0.6238100       0.2238400
C        2.0346200       1.1170200       0.2606600
C        3.2999600       1.5423800      -0.1409300
C        1.5284800      -0.1282200      -0.1682600
C       -0.1228000      -2.1476400       0.2012400
C       -1.9651900      -1.2241300       0.6940800
C       -2.1833300      -1.8095300      -0.7172800
C       -1.0202200      -2.3887000      -1.0299500
C       -1.4129900       1.3486400       0.5162100
C       -3.3390900       2.7187900       0.3696500
O       -2.7576100       1.4116100       0.4229000
C        2.3383100      -0.9335000      -1.0000700
C        3.5957100      -0.4947900      -1.4121900
O       -0.7171700       2.3514200       0.5570400
O       -1.0861000      -2.2082500       1.2594000
C        4.0827100       0.7439400      -0.9822700
H        1.4269400       1.7418400       0.9112600
H        3.6800000       2.5057200       0.2070800
H        0.7159500      -2.8311200       0.3650100
H        1.9731200      -1.9028400      -1.3436500
H       -2.8477100      -1.0447100       1.3147000
H       -3.0874700      -1.6877900      -1.3125500
H       -0.7008400      -2.8717700      -1.9525100
H        4.2010600      -1.1254900      -2.0671100
H       -2.9837300       3.2657200      -0.5161300
H       -3.0869200       3.2921000       1.2739400
H        5.0722800       1.0834100      -1.2970300
H       -4.4229700       2.5658100       0.3086200
