28
dipolar_002457 reactant_1 @ TS geom
C        4.2779500       2.5627300       1.7848200
N        2.9343000       2.3079600       1.3408800
C        2.5956000       1.1291400       0.7677700
O        3.4043800       0.2355700       0.5186400
N        1.2261200       0.9280500       0.6451900
N        0.4249300       1.7009800       0.0068500
C        0.9214300       2.6918300      -0.9855700
C       -0.8961700       1.5366000       0.2221900
C       -1.4484700       0.9470500       1.4517000
C       -0.5838000       0.7283500       2.6655300
O       -2.6641000       0.7497000       1.5161700
C       -1.9062900       2.1502800      -0.6882100
O       -2.7490800       1.5412300      -1.3059500
O       -1.8124300       3.4843800      -0.6761500
C       -2.7235900       4.2110700      -1.5024700
H        4.5278300       1.9058700       2.6230500
H        4.9504200       2.3807900       0.9569400
H        4.2760900       3.5918400       2.0829200
H        2.1268600       2.8557600       1.6214000
H        0.9189100       3.6772700      -0.5516100
H        1.9257100       2.3848500      -1.2983600
H        0.2699700       2.6615800      -1.8780500
H       -0.0076400      -0.1965300       2.5669400
H        0.1555500       1.5497200       2.7671100
H       -1.2330600       0.6904800       3.5354800
H       -2.4505500       5.2522000      -1.3362400
H       -3.7485200       4.0121800      -1.1733100
H       -2.5872700       3.9181100      -2.5409400
