26
dipolar_001652 reactant_1 @ TS geom
C        4.1494800       3.1463200      -0.4196700
O        2.8968900       2.5346800      -0.6796700
C        2.2947800       1.9169000       0.3682700
O        2.8225400       1.7986400       1.4686300
N        1.0301500       1.5145500       0.0981500
N        0.7371300       1.1853000      -1.1567300
C       -0.4515100       0.7981200      -1.5963300
C       -0.4671300       0.1036100      -2.9256300
C       -1.7100200       1.1481600      -0.9303500
C       -1.7621900       2.0415000       0.1617300
C       -2.9808400       2.5180200       0.6319400
C       -4.1810000       2.0989100       0.0495400
C       -4.1480100       1.1983000      -1.0195000
C       -2.9306700       0.7285200      -1.5077000
H        4.8875000       2.3983000      -0.1490000
H        4.3928600       3.6452600      -1.3502400
H        4.0388600       3.8827400       0.3987400
H        1.4970200       1.0911300      -1.8374700
H       -0.9190100       0.7772900      -3.6227900
H       -1.0791000      -0.8435700      -2.9161700
H        0.5394200      -0.1899200      -3.2411600
H       -0.8328400       2.3505700       0.6275800
H       -2.9819900       3.2252400       1.4592600
H       -5.1318000       2.4778400       0.4290200
H       -5.0823200       0.8738000      -1.4858100
H       -2.9440800       0.0267600      -2.3416500
