47
dipolar_001652 TS complex (tags stripped)
C        4.1494800       3.1463200      -0.4196700
O        2.8968900       2.5346800      -0.6796700
C        2.2947800       1.9169000       0.3682700
O        2.8225400       1.7986400       1.4686300
N        1.0301500       1.5145500       0.0981500
N        0.7371300       1.1853000      -1.1567300
C       -0.4515100       0.7981200      -1.5963300
C       -0.4671300       0.1036100      -2.9256300
C       -1.7100200       1.1481600      -0.9303500
C       -1.7621900       2.0415000       0.1617300
C       -2.9808400       2.5180200       0.6319400
C       -4.1810000       2.0989100       0.0495400
C       -4.1480100       1.1983000      -1.0195000
C       -2.9306700       0.7285200      -1.5077000
C        0.0988000      -1.3702100      -0.0431900
C       -1.2994800      -1.7332400       0.2947600
F       -2.0630500      -2.0643900      -0.7684200
F       -1.2836600      -2.8472200       1.0964500
F       -1.9698700      -0.8102700       1.0062000
C        0.9467300      -2.2324500      -0.9781000
C        1.3692000      -3.4422800      -0.0849300
C        2.2419300      -2.7733300       1.0161900
C        2.3314100      -1.2853300       0.5369800
C        2.2857400      -1.4672800      -0.9909200
C        0.9044600      -0.8402500       0.8532700
C        0.5648900      -0.3391500       2.1421500
N        0.3118800      -0.0415400       3.2428700
H        4.8875000       2.3983000      -0.1490000
H        4.3928600       3.6452600      -1.3502400
H        4.0388600       3.8827400       0.3987400
H        1.4970200       1.0911300      -1.8374700
H       -0.9190100       0.7772900      -3.6227900
H       -1.0791000      -0.8435700      -2.9161700
H        0.5394200      -0.1899200      -3.2411600
H       -0.8328400       2.3505700       0.6275800
H       -2.9819900       3.2252400       1.4592600
H       -5.1318000       2.4778400       0.4290200
H       -5.0823200       0.8738000      -1.4858100
H       -2.9440800       0.0267600      -2.3416500
H        0.5105300      -2.4871000      -1.9512300
H        0.4942300      -3.9715200       0.3128800
H        1.9552900      -4.1069400      -0.6826100
H        3.2105500      -3.1900100       1.0950100
H        1.7476200      -2.7919200       2.0192700
H        3.1636900      -0.6967000       0.9553600
H        3.1072100      -2.1083600      -1.3427400
H        2.3224100      -0.5420900      -1.5862600
