27
dipolar_002374 reactant_1 @ TS geom
C       -2.5371500      -2.5706400      -2.0589100
N       -1.6806300      -1.5305800      -1.5161500
C       -1.8226100      -1.1148000      -0.2567400
O       -2.6816900      -1.5758800       0.5205300
C       -0.8785300      -0.1248100       0.3904000
C       -1.5427300       1.1849300       0.8897200
O       -1.4252300       2.3294600       0.4569400
N       -2.3155800       0.8579700       1.9358100
C       -3.0582900       1.8421300       2.6809400
C        0.2639900      -0.5157000       0.8860900
Br       0.8127200      -2.3648600       0.6262400
C        1.0354000       0.2913500       1.9008900
O        0.7890900       1.4947100       2.0353600
N        1.9184400      -0.3503300       2.6776800
C        2.6413400       0.3540200       3.7173700
H       -2.1639200      -2.8918600      -3.0394600
H       -3.5803100      -2.2282200      -2.1688200
H       -2.5412000      -3.4464400      -1.3810600
H       -1.0753300      -1.0173000      -2.1676000
H       -2.4681800      -0.1495400       2.0369700
H       -3.8069400       2.3207100       2.0542700
H       -2.3694800       2.5967100       3.0737100
H       -3.5378300       1.3155700       3.5103400
H        2.1123800      -1.3297300       2.5114200
H        3.2930000       1.1245000       3.2880900
H        1.9406800       0.8433300       4.4160400
H        3.2448100      -0.3705900       4.2688400
