19
dipolar_002374 reactant_2 (FRAG2 relaxed, reordered to d) type=dipole
N       -0.1501100       0.0632300      -0.1219900
C        2.0426400       0.0597900      -0.3585400
O        1.9658600       0.5121500      -1.4890300
O        3.1694200      -0.2454000       0.2701500
C        4.3872300      -0.0232600      -0.4572800
N        0.9523700      -0.2207500       0.4770400
C       -1.3814000      -0.0726000       0.3476400
C       -1.5930500      -0.5836300       1.6513800
N       -1.7934900      -1.0014600       2.7192200
C       -2.4747500       0.3338800      -0.5779700
C       -3.8789900       0.1857300      -0.0868700
O       -2.1741300       0.7629100      -1.6837300
H        4.3974900      -0.6256600      -1.3770400
H        5.1972800      -0.3354000       0.2113400
H       -0.1043500       0.4465800      -1.0941200
H       -4.0744400      -0.8683300       0.1703400
H        4.4910600       1.0412600      -0.7122800
H       -4.5820700       0.5227600      -0.8579800
H       -4.0172900       0.7730800       0.8356900
