46
dipolar_002374 TS complex (tags stripped)
C       -2.5371500      -2.5706400      -2.0589100
N       -1.6806300      -1.5305800      -1.5161500
C       -1.8226100      -1.1148000      -0.2567400
O       -2.6816900      -1.5758800       0.5205300
C       -0.8785300      -0.1248100       0.3904000
C       -1.5427300       1.1849300       0.8897200
O       -1.4252300       2.3294600       0.4569400
N       -2.3155800       0.8579700       1.9358100
C       -3.0582900       1.8421300       2.6809400
N       -0.2235100       0.9558700      -1.7148900
C       -1.2523000       1.8382900      -2.0599500
O       -1.0406900       2.9621500      -2.5050400
O       -2.4374600       1.2524300      -1.9681900
C       -3.5727900       2.0501500      -2.3506600
N        0.8144600       1.5095200      -1.2141500
C        1.9440200       0.8554100      -0.9392700
C        2.9082900       1.4909800      -0.1132200
N        3.7226100       1.9751800       0.5639800
C        2.3520500      -0.4574600      -1.5328500
C        1.6374300      -1.0015600      -2.7337400
O        3.3495400      -0.9918000      -1.0746200
C        0.2639900      -0.5157000       0.8860900
Br       0.8127200      -2.3648600       0.6262400
C        1.0354000       0.2913500       1.9008900
O        0.7890900       1.4947100       2.0353600
N        1.9184400      -0.3503300       2.6776800
C        2.6413400       0.3540200       3.7173700
H       -2.1639200      -2.8918600      -3.0394600
H       -3.5803100      -2.2282200      -2.1688200
H       -2.5412000      -3.4464400      -1.3810600
H       -1.0753300      -1.0173000      -2.1676000
H       -2.4681800      -0.1495400       2.0369700
H       -3.8069400       2.3207100       2.0542700
H       -2.3694800       2.5967100       3.0737100
H       -3.5378300       1.3155700       3.5103400
H       -3.4617400       2.3678700      -3.4002200
H       -4.4696400       1.4212400      -2.2434500
H       -3.6524400       2.9336400      -1.7019500
H        0.7591900       2.5006300      -0.8948500
H        0.8677000      -1.7157400      -2.4138400
H        2.3692000      -1.5386700      -3.3434900
H        1.1454300      -0.2089000      -3.3210600
H        2.1123800      -1.3297300       2.5114200
H        3.2930000       1.1245000       3.2880900
H        1.9406800       0.8433300       4.4160400
H        3.2448100      -0.3705900       4.2688400
