26
dipolar_002390 reactant_1 (FRAG1 relaxed, reordered to d) type=dipole
C        4.9055700       0.3399000      -0.3806900
N        0.3571900       0.0488600       0.4353200
C        2.6953000       0.8591000       0.2389700
O        2.8164700       2.0360600      -0.0322500
C        1.4556500       0.3369600       0.8064200
C       -0.8582100      -0.2805100       0.1312300
O        3.6260100      -0.0779600       0.1375800
N       -2.3719300      -2.1027300      -0.3031600
C       -1.1101800      -1.7482900      -0.0154000
N       -1.4341000       2.0652700       0.0259600
C       -1.8737700       0.7952400      -0.0442700
C       -2.3426600       3.1845700      -0.1328400
O       -3.0714000       0.5261500      -0.2449900
O       -0.1838500      -2.5578400       0.1302300
C       -2.7487900      -3.4914200      -0.4576900
H        4.7934100       0.7234300      -1.4044100
H        5.3388400       1.1170700       0.2642800
H        5.5335600      -0.5574600      -0.3754400
H       -0.4426600       2.2567400       0.1227100
H       -3.0550300      -1.3453700      -0.3738700
H       -2.5738600      -4.0634200       0.4683400
H       -2.1732500      -3.9756200      -1.2629400
H       -3.8156100      -3.5440900      -0.7070100
H       -3.1730800       3.1218500       0.5866300
H       -2.7734600       3.2151400      -1.1468800
H       -1.7892100       4.1143800       0.0442900
