29
dipolar_002646 reactant_2 (FRAG2 relaxed, reordered to d) type=dipole
C       -2.6755300      -0.8584200       0.9735900
N        0.7770600       0.0932200       0.1656600
C       -0.9750300       1.6603800       0.3625200
O       -2.1370400       2.0098300       0.4825400
C       -0.5005300       0.2634900       0.3474800
N        3.6241500       0.5768800      -1.4853200
C        1.9565800      -0.0873800       0.0829400
C        3.4275900       1.9699900      -1.1189000
O        0.0373000       2.5328200       0.2166000
O        2.9624800      -1.6191200      -1.3575600
C        2.8904800      -0.4386700      -1.0070100
C       -1.3583700      -0.9294400       0.4781500
C       -0.8431500      -2.1932800       0.1161500
C       -1.6177700      -3.3438800       0.2516100
C       -2.9254100      -3.2631000       0.7430700
C       -3.4458100      -2.0161400       1.1003500
C       -0.3101500       3.9227100       0.2061300
H       -3.0911800       0.1044700       1.2614900
H       -4.4644100      -1.9392500       1.4883700
H       -0.9924900       4.1451000      -0.6272100
H        0.1694000      -2.2740100      -0.2848500
H        4.3488100       2.5287500      -1.3262100
H        3.2124700       2.0525900      -0.0430100
H        4.2415200       0.3487800      -2.2617700
H        2.5972800       2.4330500      -1.6754900
H       -1.1981700      -4.3105400      -0.0368800
H       -3.5334500      -4.1649800       0.8437100
H       -0.7877300       4.2097300       1.1543200
H        0.6327200       4.4667000       0.0771700
