27
dipolar_002646 reactant_1 (FRAG1 relaxed, reordered to d) type=dipolarophile
C       -0.4845200       0.3118700      -2.1762800
C        2.4125900       0.8774800      -0.7186100
C        0.5034900      -0.2230400       0.4748000
C        2.9079400       1.4841800       0.5580900
N       -2.6725000       2.0546900       2.8656000
C       -2.3789300       1.2562100       2.0794800
N       -3.3083000      -1.9815400       1.4565800
C       -0.5579000       0.0133900       1.0059400
C        1.4679900      -0.3553100      -0.5948800
C        0.6850000      -0.6536300      -1.8856600
C       -1.8795700      -0.0083100      -1.5709500
C       -2.3826500       0.8341000      -0.3846000
Cl       2.6495700      -1.7413400      -0.2619300
C       -2.0018900       0.2722200       1.0450200
C       -2.7327600      -0.9886600       1.2988900
O        2.7035900       1.2914600      -1.8194500
H       -1.9751600       1.8544700      -0.4302600
H        3.1572800       0.7114900       1.2987900
H        0.3103700      -1.6853900      -1.8195600
H        2.0947600       2.0973900       0.9824500
H        1.4115700      -0.6141500      -2.7088400
H       -0.1928000       1.3450700      -1.9266500
H       -1.9541200      -1.0822300      -1.3304100
H       -0.6038300       0.3008500      -3.2698600
H       -2.6197600       0.1596100      -2.3671900
H       -3.4793900       0.9097000      -0.4015400
H        3.7739500       2.1272700       0.3564100
