27
dipolar_002646 reactant_1 @ TS geom
C       -6.1247000      -3.6163800       4.9940200
C       -6.0678300      -2.9723800       6.0818500
C       -4.9859200      -2.4388600       7.0248700
C       -5.1838400      -0.9859300       7.2144300
N       -5.3659000       0.1537700       7.3212300
C       -5.1760300      -3.1216400       8.3261500
N       -5.3357100      -3.7218600       9.3048400
C       -3.5163200      -2.7457100       6.5842000
C       -2.9718300      -1.9782300       5.3799900
C       -3.6658900      -2.1919100       4.0293900
C       -3.9353200      -3.6640000       3.6778000
C       -5.4253700      -4.0722700       3.7678100
Cl      -6.2680200      -3.2257000       2.3419800
C       -5.5000800      -5.6188000       3.6226800
C       -6.0189600      -6.2455600       2.3685700
O       -5.0714500      -6.2658300       4.5622300
H       -3.4080300      -3.8090100       6.4836900
H       -2.8307600      -2.4561700       7.4725100
H       -1.8895200      -2.2825600       5.2926700
H       -2.9336400      -0.8968700       5.5850000
H       -2.9768800      -1.7540900       3.2558900
H       -4.5691900      -1.6331000       3.9706200
H       -3.3566800      -4.3556600       4.3055300
H       -3.5532800      -3.8901900       2.6143900
H       -5.9320200      -7.3476800       2.4302300
H       -5.4764800      -5.8839100       1.4713400
H       -7.0767200      -5.9714200       2.2188600
