56
dipolar_002646 TS complex (tags stripped)
C       -8.5308600      -1.1391300      10.2744400
N       -8.1446000      -2.0871500       9.2296900
C       -8.3434000      -1.8149600       7.9389000
O       -8.9079800      -0.8235400       7.4990500
C       -7.7805400      -2.8134800       6.9244300
N       -8.5370500      -3.6345500       6.3483400
C       -8.4096900      -4.4897400       5.3310500
C       -9.0237800      -3.9332000       4.0733400
O       -9.4469800      -2.7955900       4.0065600
O       -9.0539400      -4.7933100       3.0634600
C       -9.5946300      -4.3165300       1.8208800
C       -8.1440300      -5.9114600       5.6513700
C       -8.4952700      -6.9835400       4.8088700
C       -8.0964900      -8.2857700       5.1209000
C       -7.3561000      -8.5449500       6.2757600
C       -7.0357000      -7.4908300       7.1403600
C       -7.4329000      -6.1927400       6.8389700
C       -6.1247000      -3.6163800       4.9940200
C       -6.0678300      -2.9723800       6.0818500
C       -4.9859200      -2.4388600       7.0248700
C       -5.1838400      -0.9859300       7.2144300
N       -5.3659000       0.1537700       7.3212300
C       -5.1760300      -3.1216400       8.3261500
N       -5.3357100      -3.7218600       9.3048400
C       -3.5163200      -2.7457100       6.5842000
C       -2.9718300      -1.9782300       5.3799900
C       -3.6658900      -2.1919100       4.0293900
C       -3.9353200      -3.6640000       3.6778000
C       -5.4253700      -4.0722700       3.7678100
Cl      -6.2680200      -3.2257000       2.3419800
C       -5.5000800      -5.6188000       3.6226800
C       -6.0189600      -6.2455600       2.3685700
O       -5.0714500      -6.2658300       4.5622300
H       -8.2286200      -1.5349900      11.2784000
H       -9.6022300      -0.9026300      10.3248400
H       -7.9863700      -0.1643700      10.1522200
H       -7.6650700      -2.9076100       9.5095200
H       -9.5192100      -5.1525400       1.1172300
H       -9.0038900      -3.4631000       1.4685800
H      -10.6491400      -4.0108400       1.9351400
H       -9.0928600      -6.8226400       3.9138600
H       -8.3575800      -9.1134500       4.4501100
H       -7.0127000      -9.5608300       6.5051300
H       -6.4522700      -7.6698500       8.0425100
H       -7.1763900      -5.3819600       7.5124100
H       -3.4080300      -3.8090100       6.4836900
H       -2.8307600      -2.4561700       7.4725100
H       -1.8895200      -2.2825600       5.2926700
H       -2.9336400      -0.8968700       5.5850000
H       -2.9768800      -1.7540900       3.2558900
H       -4.5691900      -1.6331000       3.9706200
H       -3.3566800      -4.3556600       4.3055300
H       -3.5532800      -3.8901900       2.6143900
H       -5.9320200      -7.3476800       2.4302300
H       -5.4764800      -5.8839100       1.4713400
H       -7.0767200      -5.9714200       2.2188600
