%chk=gs_122_reactant_1.chk
%mem=2GB
%nprocshared=2
#P AM1 Freq NoSymm

dipolar_001545 AM1 SPE on relaxed reactant_1 (n=35)

0 1
 C       -2.1445200      -0.4758800      -0.8106400
 N       -0.0076500       1.4749700      -0.0028100
 C        1.8737200      -1.4781100      -0.9374300
 C       -0.8748100      -2.0746300       0.4874700
 C        3.1665700      -1.9992100      -0.9601100
 N       -1.6438500       4.5476100       0.0466200
 C        0.1707000       0.1341300      -0.0483900
 C       -0.9658100      -0.7940900      -0.1007900
 C       -1.9355600       1.4082700       1.6106700
 C       -1.0852100       2.0925500       0.5902700
 C       -1.3667800       3.4258600       0.2632300
 C        0.9974900       2.3703000      -0.6148100
 C        1.5415600      -0.4070500      -0.0816600
 C        2.5475900       0.1112200       0.7601800
 C        3.8411800      -0.4110800       0.7337700
 C        4.1577600      -1.4674900      -0.1264200
 C       -1.9118900      -2.9977900       0.3634300
 C       -3.1737100      -1.4069700      -0.9444700
 C       -3.0668800      -2.6724600      -0.3569100
 H       -2.2455500       0.5056100      -1.2777900
 H       -4.0685200      -1.1405200      -1.5121800
 H       -2.7675700       0.8199700       1.1807600
 H        1.1102000      -1.8924400      -1.5981400
 H        3.4052200      -2.8224700      -1.6377000
 H        0.0194100      -2.3412300       1.0529900
 H       -1.3255200       0.7056000       2.2019400
 H       -2.3715300       2.1586100       2.2866200
 H        1.5080200       2.9622800       0.1552100
 H        2.3068800       0.9202500       1.4523400
 H        0.4751300       3.0500600      -1.3009600
 H        1.7192900       1.7847400      -1.1879600
 H        4.6040300       0.0024700       1.3978000
 H        5.1700900      -1.8776800      -0.1447800
 H       -1.8189600      -3.9787600       0.8357200
 H       -3.8786500      -3.3967000      -0.4556200

