%chk=gs_164_reactant_1.chk
%mem=2GB
%nprocshared=2
#P AM1 Freq NoSymm

dipolar_002299 AM1 SPE on relaxed reactant_1 (n=15)

0 1
 C       -2.1958100       1.0566600       0.3286200
 C       -1.8540500      -0.2612500      -0.2928500
 O        0.3896700       0.2137100       0.1401300
 C       -0.4012900      -0.6531900      -0.3596300
 C        0.0826900      -1.9055100      -0.9388600
 O       -2.6709900      -1.0408400      -0.7498200
 N        1.7536700      -0.0439700       0.1296300
 C        2.3556500       0.9882000       0.6985900
 N        3.0175100       1.8319700       1.1786200
 H       -1.6885500       1.8720900      -0.2112400
 H       -1.8362500       1.0873300       1.3695700
 H       -3.2825700       1.2008600       0.2990100
 H        0.6626900      -2.4576200      -0.1774300
 H       -0.7547100      -2.5065900      -1.3068100
 H        0.7943300      -1.6776500      -1.7528900

