%chk=gs_186_reactant_1.chk
%mem=2GB
%nprocshared=2
#P AM1 Freq NoSymm

dipolar_002653 AM1 SPE on relaxed reactant_1 (n=24)

0 1
 C        0.0856300       0.2286600       0.1491400
 C       -1.0213000      -0.2821400       1.0607500
 O        1.5603600      -1.5904200       0.4808600
 N        2.3932900       0.2709500      -0.5430100
 C       -1.8412000       1.0107300       1.2472800
 C        1.4020800      -0.4376400       0.0438200
 C        3.7224000      -0.2503500      -0.7793000
 C       -0.4578700       1.1727900      -0.6491200
 C       -2.6001900      -0.0142000      -0.7763400
 C       -1.9811600      -1.1053000       0.1431200
 C       -1.9176600       1.3031300      -0.2676400
 H       -2.8270800       0.8396400       1.7066900
 H       -1.2990000       1.7872400       1.8073900
 H       -0.6839300      -0.8117600       1.9596600
 H       -2.4211100       2.2242300      -0.5873900
 H       -1.4341600      -1.8819800      -0.4098600
 H        2.1867500       1.2169200      -0.8455700
 H        3.9430600      -0.3149100      -1.8574200
 H        0.0063800       1.6505600      -1.5149500
 H       -2.4052400      -0.1870100      -1.8444300
 H       -3.6899100       0.0556500      -0.6404300
 H       -2.7531600      -1.6017700       0.7500200
 H        3.7878400      -1.2558800      -0.3473400
 H        4.4876300       0.3873600      -0.3092700

