%chk=gs_155_reactant_1.chk
%mem=2GB
%nprocshared=2
#P AM1 Freq NoSymm

dipolar_002132 AM1 SPE on relaxed reactant_1 (n=28)

0 1
 C        0.0787300       1.3236200      -0.5882300
 N       -0.9873900       1.6806100      -1.3468000
 C       -1.2697500      -0.5511600       0.6102300
 O       -1.5766900      -1.7527300       0.5791500
 C        0.0076500      -0.0201600       0.0458000
 C       -3.4044200      -0.0169800       1.6829000
 O        1.0548500       2.0760900      -0.4307700
 N       -2.1029800       0.3586700       1.1698000
 C        1.1561500      -0.7606800       0.2253200
 C        2.3886400      -0.1556900      -1.7679000
 O        2.3087800      -0.6303300      -0.4169400
 C        2.1817700      -2.7463600       1.0731700
 O        1.1878600      -1.7134100       1.1536800
 C       -1.1675700       3.0001500      -1.9136200
 H       -0.3014200       3.6191500      -1.6526900
 H       -2.0796600       3.4791300      -1.5218900
 H       -1.8162800       1.3285000       1.2324100
 H       -1.7445000       1.0143100      -1.4504900
 H        2.1886700      -3.2045800       0.0737500
 H       -3.9936300      -0.5476100       0.9184100
 H        1.4548500      -0.3751300      -2.3051100
 H       -3.3218500      -0.6792200       2.5608000
 H        3.2233800      -0.6984600      -2.2296100
 H        2.5803900       0.9234800      -1.7797800
 H       -1.2472200       2.9540600      -3.0115800
 H        3.1792500      -2.3493100       1.3073000
 H        1.8913700      -3.4904200       1.8244700
 H       -3.9453300       0.8906400       1.9786000

