%chk=gs_160_reactant_1.chk
%mem=2GB
%nprocshared=2
#P AM1 Freq NoSymm

dipolar_002209 AM1 SPE on relaxed reactant_1 (n=28)

0 1
 C       -0.8995700      -0.0166300       0.0041100
 N        0.4198700      -0.2473600      -0.0514500
 C       -1.6588700      -1.2826500      -0.1755800
 O       -1.0304900      -2.3582700      -0.2720000
 C       -1.5339200       1.2891300       0.2376200
 C       -1.3656800       3.5728600       1.0766900
 O       -2.7399700       1.4766100      -0.0236600
 N       -2.9952600      -1.2136200      -0.2287700
 C       -3.8112500      -2.3939900      -0.4158200
 N       -0.7799000       2.2836400       0.7597200
 C        1.5387200       0.4578700      -0.0326700
 C        2.7708200      -0.3003300      -0.1636400
 O        2.8277000      -1.5213600      -0.2557200
 O        3.8498500       0.4973500      -0.1696600
 C        5.1226400      -0.1491400      -0.2921000
 H       -3.3975000      -0.2747400      -0.2064900
 H        0.5687200      -1.2744500      -0.1652700
 H       -1.8708000       3.9917100       0.1946800
 H        1.5496500       1.5419000       0.0260100
 H       -3.6164200      -3.1415000       0.3691800
 H       -4.8683700      -2.1047500      -0.3712200
 H       -2.1071500       3.4999400       1.8900000
 H       -3.6177600      -2.8730400      -1.3901100
 H        0.1194700       2.0647200       1.1733200
 H        5.2898900      -0.8381500       0.5490000
 H        5.1840300      -0.7088300      -1.2371400
 H        5.8715600       0.6513300      -0.2786200
 H       -0.5653400       4.2563800       1.3855800

