%chk=gs_129_reactant_2.chk
%mem=2GB
%nprocshared=2
#P AM1 Freq NoSymm

dipolar_001699 AM1 SPE on relaxed reactant_2 (n=23)

0 1
 C       -2.0956600      -1.8013100       1.3538100
 C       -1.6640800       1.6788200       0.4531400
 O       -0.9923700       1.1383600      -1.6773700
 C       -1.6538200       0.5196500      -0.5690700
 C        0.6141000       0.2106100      -0.3459700
 C        0.1526700       1.5712500      -0.9270200
 C       -0.5350400      -0.4686900      -0.1205000
 O        2.7445000       1.0285400       0.0403800
 C        2.0299500       0.0287900       0.0414600
 C        2.5623600      -1.3189700       0.4234500
 C       -0.8210500      -1.7554400       0.5565800
 O       -0.0778100      -2.7222700       0.4563900
 C       -0.5274000       2.3419100       0.2240900
 H       -2.1900100      -0.9098300       1.9945600
 H       -2.4321900       1.8372000       1.2087800
 H       -0.0963700       3.1983400       0.7407100
 H       -2.6147300       0.0756900      -0.8474400
 H        0.8838100       2.1065600      -1.5393900
 H       -2.9561100      -1.7926400       0.6632300
 H        2.3483900      -2.0557500      -0.3636900
 H        2.0560800      -1.6786800       1.3328300
 H        3.6428100      -1.2442000       0.6026500
 H       -2.1257600      -2.7161700       1.9594800

