%chk=gs_110_reactant_2.chk
%mem=2GB
%nprocshared=2
#P AM1 Freq NoSymm

dipolar_001420 AM1 SPE on relaxed reactant_2 (n=19)

0 1
 C        1.4264300      -0.5113100       0.1602300
 O        1.9947600      -1.5626500       0.4030800
 C        0.0055900      -0.3753900      -0.1660000
 O        2.0485900       0.6793600       0.1681700
 C       -0.7532700       0.9228400      -0.5381800
 C       -1.6155800       1.3084200       0.6858200
 C       -2.5544700       0.3610500       0.7574900
 C       -2.2560800      -0.5841100      -0.4315600
 C       -0.9450800      -1.3205500      -0.0952700
 O       -1.7647300       0.3650800      -1.3991400
 C        3.4457000       0.6735300       0.4871100
 H       -0.8515100      -2.3648300       0.2005200
 H        3.6103800       0.2637700       1.4944500
 H       -1.4183700       2.1485300       1.3506600
 H       -0.1766900       1.7132200      -1.0276500
 H       -3.3377000       0.2051400       1.4983000
 H       -3.0834800      -1.1867800      -0.8203000
 H        3.7707000       1.7196000       0.4463500
 H        4.0059300       0.0730700      -0.2445800

