%chk=gs_106_reactant_1.chk
%mem=2GB
%nprocshared=2
#P AM1 Freq NoSymm

dipolar_001399 AM1 SPE on relaxed reactant_1 (n=30)

0 1
 C       -1.3755400      -0.1441800      -1.7426000
 N       -2.0518100      -1.1667200      -1.1786900
 C       -0.5914100       0.7639100      -0.8715600
 O       -1.4320100       0.0804200      -2.9630800
 C       -2.1597900      -1.5128400       0.2259100
 C        1.1690400      -1.7836000      -0.2734300
 C        1.7592400      -2.9417800       0.2297100
 C        2.2262600      -2.9806200       1.5492100
 C        1.0289100      -0.6394500       0.5383100
 O        0.5093400       2.7613600      -0.6241200
 C        0.3790600       0.5683500       0.0450000
 C        1.5238700      -0.6825800       1.8568400
 C        2.1084900      -1.8466000       2.3588100
 C        0.6766800       2.0026000       0.5846700
 C       -0.5641000       2.4547500       1.3807500
 C       -1.5111800       2.6421700       0.4556700
 C       -0.8269400       2.2962200      -0.8836600
 H       -1.2499400       2.7138900      -1.8030100
 H        0.8291500      -1.7539500      -1.3100000
 H       -2.5423400      -1.7593000      -1.8452000
 H        1.6605900       2.1573200       1.0390500
 H       -3.1847200      -1.8504500       0.4360500
 H       -1.4646100      -2.3190700       0.5097300
 H        1.8627700      -3.8188900      -0.4133400
 H        2.4756900      -1.8673100       3.3875000
 H        1.4312900       0.1955400       2.4994100
 H        2.6886600      -3.8894400       1.9411100
 H       -0.6233200       2.5217000       2.4664800
 H       -2.5618900       2.9043000       0.5744900
 H       -1.9514800      -0.6374600       0.8520800

