%chk=gs_109_reactant_1.chk
%mem=2GB
%nprocshared=2
#P AM1 Freq NoSymm

dipolar_001418 AM1 SPE on relaxed reactant_1 (n=31)

0 1
 C       -0.8848200      -1.5774700       1.8120000
 O       -0.2522200       2.7784500      -0.6629800
 C       -2.2513900       0.1963900       0.4159200
 C       -1.8679500      -1.2903300       0.6642500
 C       -1.8095500       0.8425100      -0.9130400
 O       -0.1805400       0.3928800      -3.1949000
 C       -0.3629100       1.4138200      -1.0181200
 C       -0.6186300       3.1404300       0.6591900
 C        0.4773700       0.5303900      -0.1936600
 C        0.8310900      -0.3567600       0.5495000
 C        0.1708900       1.3105500      -2.4824900
 C        1.1472700       2.3593800      -2.9188200
 N        1.1661900      -3.7074700      -0.0324900
 C        0.6393700      -1.5483200       1.3889100
 N        2.1221600      -1.5111400       3.5660900
 C        0.9588000      -2.7586500       0.5991300
 C        1.4870900      -1.5357100       2.5975900
 H       -0.9958000      -0.8306200       2.6115200
 H       -1.9269600       0.8052800       1.2724500
 H       -1.0673000      -2.5682600       2.2522300
 H       -2.7873300      -1.8355700       0.9244500
 H       -3.3505100       0.2554800       0.4177700
 H       -1.5063900      -1.7595100      -0.2659900
 H       -2.4751100       1.6850100      -1.1597600
 H       -1.7053000       3.0557700       0.8240800
 H       -0.0907800       2.5304300       1.4122800
 H       -0.3250500       4.1915300       0.7866000
 H        1.9480200       2.4713000      -2.1719600
 H        0.6329800       3.3309600      -2.9800800
 H       -1.9145900       0.1025100      -1.7186700
 H        1.5629400       2.0918300      -3.8986100

