%chk=gs_103_reactant_2.chk
%mem=2GB
%nprocshared=2
#P AM1 Freq NoSymm

dipolar_001374 AM1 SPE on relaxed reactant_2 (n=18)

0 1
 C       -0.2970900      -1.5477600      -0.3326600
 F        0.5442700      -2.4931600      -0.6318000
 F       -1.5060200      -2.0239400      -0.2508200
 C        0.0320000      -0.2535000      -0.1458300
 C       -1.0140300       0.7710600       0.1478900
 O       -1.9614900       0.3200200       0.9689800
 O        1.6859100       1.3187000       0.3371100
 C        3.0204200       1.8401300       0.2526300
 C        1.4514300       0.1681800      -0.2970900
 O       -0.9990300       1.8916800      -0.3166400
 O        2.3057400      -0.4570100      -0.8921500
 C       -3.0505200       1.2152300       1.2477700
 H        3.7350500       1.1405600       0.7095300
 H        3.0076300       2.7862800       0.8053500
 H        3.2982800       2.0146200      -0.7967400
 H       -3.5659800       1.4926100       0.3171200
 H       -2.6808700       2.1218500       1.7476300
 H       -3.7284900       0.6648200       1.9097500

