%chk=gs_190_reactant_2.chk
%mem=2GB
%nprocshared=2
#P AM1 Freq NoSymm

dipolar_002757 AM1 SPE on relaxed reactant_2 (n=33)

0 1
 C       -2.2957600       2.0615300       1.4222100
 N        0.6838200      -2.7321300      -0.3868500
 C       -3.6666800      -0.0407700       1.9083700
 O        2.5429200      -1.8367000       0.5501700
 C       -1.8649100       0.0416000       0.2309800
 Br       1.4354400       0.5553100      -1.5983600
 C       -2.9799200       0.7940500       0.8110000
 C       -0.7384100      -0.3463700      -0.0060500
 C        0.7029400      -0.3409400       0.0941200
 C        1.0990900       0.5102600       1.3138900
 C        1.4013200      -1.7113200       0.1049300
 C        0.3561100       1.8473200       1.4890000
 C        1.2257100      -4.0747400      -0.4651700
 C       -1.0060800       1.8450200       2.2425000
 C       -4.0103400       1.2136700      -0.2489800
 H       -3.0544900       2.5472200       2.0583400
 H       -0.9676400       2.6682800       2.9726900
 H       -2.0807100       2.7639300       0.5999400
 H       -4.4822400       0.5451100       2.3602100
 H       -4.5146000       0.3338800      -0.6773700
 H       -4.0947000      -0.9632500       1.4874500
 H       -3.5317100       1.7729900      -1.0670700
 H        0.2445300       2.3338300       0.5056500
 H       -0.2580700      -2.5551100      -0.7227000
 H        0.4499500      -4.7488600      -0.8472700
 H        2.1845100       0.6729400       1.2641800
 H        0.9208300      -0.1282900       2.1968000
 H        1.5486500      -4.4275400       0.5265000
 H        1.0417100       2.4936500       2.0580100
 H       -1.0945400       0.9274500       2.8483200
 H        2.0960800      -4.1146300      -1.1398700
 H       -2.9594300      -0.3222100       2.7024400
 H       -4.7748600       1.8593100       0.2107200

