%chk=gs_100_reactant_1.chk
%mem=2GB
%nprocshared=2
#P AM1 Freq NoSymm

dipolar_001323 AM1 SPE on relaxed reactant_1 (n=20)

0 1
 C        2.0097600      -0.3005400       0.2106700
 N        2.9495900       0.4846300      -0.3580600
 C        0.6293700       0.0971000      -0.0644400
 O       -0.3891000      -0.6584700       0.4751500
 C       -1.5206900      -0.1484200       0.1137900
 O       -1.3850100       0.8998900      -0.6324800
 C        0.0736600       1.1460800      -0.8099400
 C       -2.8245400      -0.7505800       0.5378100
 C       -4.0529700      -0.0658900       0.0387900
 O        0.4586400       2.0781300      -1.4742800
 O       -2.7887500      -1.7378400       1.2449500
 C        4.3623800       0.2191500      -0.1764300
 O        2.2739500      -1.2848900       0.9132000
 H        4.6405100      -0.7700800      -0.5743800
 H        2.6590900       1.2757300      -0.9258600
 H        4.9365300       0.9868400      -0.7087900
 H        4.6408200       0.2444500       0.8892000
 H       -4.0581900       0.9830800       0.3780500
 H       -4.0469900      -0.0480700      -1.0636400
 H       -4.9422800      -0.5909400       0.4075200

