%chk=gs_130_reactant_2.chk
%mem=2GB
%nprocshared=2
#P AM1 Freq NoSymm

dipolar_001701 AM1 SPE on relaxed reactant_2 (n=12)

0 1
 C       -2.5295400       0.0337200      -0.6272800
 O       -1.0989700      -0.0748800      -0.5843100
 C       -0.5044500       0.2076500       0.5837500
 O        2.7896300      -0.4447700      -0.7480900
 C        0.9521600       0.0721500       0.5303800
 N        1.5572500      -0.2943100      -0.5723500
 O       -1.1029300       0.5438700       1.5891600
 H       -2.8425600       1.0623600      -0.3972900
 H       -2.8210500      -0.2322300      -1.6495800
 H       -2.9881300      -0.6597500       0.0922800
 H        1.5558700       0.2776900       1.4141300
 H        0.9338200      -0.4785100      -1.3828700

