%chk=gs_114_reactant_2.chk
%mem=2GB
%nprocshared=2
#P AM1 Freq NoSymm

dipolar_001484 AM1 SPE on relaxed reactant_2 (n=23)

0 1
 C        1.9540300      -0.9485400       0.0168600
 Cl      -1.0197900      -2.1803600       1.0896700
 C        3.3412800      -0.8422200       0.1020100
 C        3.9714500       0.3935900      -0.0859900
 C        1.8099500       1.4223000      -0.4605600
 C        1.1602400       0.1852300      -0.2632100
 O       -2.3130100       0.4746900      -1.4091100
 C       -0.2927800       0.1107800      -0.3442400
 C       -1.2046000      -0.7603100       0.1327500
 C       -1.8504700       1.9684600       0.2717300
 C       -2.7296800       1.0907700       0.7638700
 C       -2.5945200      -0.1509800      -0.1492700
 C       -1.1963400       1.2434600      -0.9249400
 C        3.1987300       1.5242100      -0.3669300
 H        3.9370600      -1.7331200       0.3147000
 H        5.0588300       0.4729500      -0.0171300
 H        1.2236800       2.3170900      -0.6773500
 H        1.4798100      -1.9194000       0.1580600
 H       -1.5722800       2.9579200       0.6327000
 H       -3.3730900       1.1569300       1.6403200
 H       -3.4355500      -0.8507700      -0.1962100
 H       -0.7534900       1.8596600      -1.7136600
 H        3.6796900       2.4937600      -0.5165100

