%chk=gs_11_reactant_2.chk
%mem=2GB
%nprocshared=2
#P AM1 Freq NoSymm

dipolar_000084 AM1 SPE on relaxed reactant_2 (n=8)

0 1
 C       -0.6154700      -0.4160700       0.0786200
 O       -1.8095300      -0.9216300       0.0412700
 C       -2.7948800      -0.1818400      -0.7213200
 C        0.5127900       0.0208200       0.1394100
 Cl       2.0577300       0.6125400       0.2288200
 H       -3.7292300      -0.7486500      -0.6371800
 H       -2.9176600       0.8250300      -0.2959100
 H       -2.4802100      -0.1156600      -1.7732000

