%chk=gs_136_reactant_2.chk
%mem=2GB
%nprocshared=2
#P AM1 Freq NoSymm

dipolar_001780 AM1 SPE on relaxed reactant_2 (n=29)

0 1
 C       -2.9130600       3.2319300       0.0139500
 O       -2.0647600       2.0961300      -0.2192500
 C       -1.8255500       1.7712500      -1.4890400
 O       -2.2908600       2.3699900      -2.4360800
 C       -0.8494300       0.6034500      -1.6286300
 C       -1.2727400      -0.2782700      -2.8156600
 C       -0.7019400      -0.1872000      -0.4108900
 C       -0.1847700      -0.8428000       0.4680900
 C        2.1981800      -1.2883300       0.3464200
 C        2.4369900       0.0576500      -0.3667000
 C        1.7783000       0.2812300      -1.7572300
 Cl       1.1676300      -0.3282500       2.7236800
 Cl       0.6621400      -3.0726400       1.7700500
 C        0.5735600       1.2389200      -1.8580200
 C        0.9346500      -1.3550000       1.2212500
 H       -3.9072700       3.0628900      -0.4235300
 H       -2.9883900       3.3328300       1.1026300
 H       -2.4676100       4.1369200      -0.4234800
 H       -0.5347100      -1.0749600      -2.9798100
 H       -1.3425500       0.3374500      -3.7226300
 H       -2.2516100      -0.7423000      -2.6263400
 H        2.1834200       0.8857300       0.3153200
 H        0.7027100       2.0583500      -1.1328200
 H        2.1049800      -2.0934200      -0.3992400
 H        3.0516200      -1.5391200       0.9935900
 H        1.5290100      -0.6901900      -2.2148700
 H        3.5261400       0.1205800      -0.5101800
 H        2.5517900       0.7160100      -2.4085800
 H        0.5452300       1.6959100      -2.8590800

