%chk=gs_164_reactant_2.chk
%mem=2GB
%nprocshared=2
#P AM1 Freq NoSymm

dipolar_002299 AM1 SPE on relaxed reactant_2 (n=41)

0 1
 C       -0.2877800      -0.4478900      -0.1173100
 C        0.8015600      -0.2643200       0.6835000
 C        1.3227900      -1.3730800       1.5550400
 C        1.7513800      -1.0075600       2.9537900
 C        1.5320600       1.0293200       0.7755500
 C        0.8486600       2.2245300       1.0590600
 C        2.9251200       1.0747500       0.5945200
 C       -2.0545400       0.9477200      -1.2250800
 C       -1.6735100      -2.0604800       1.2319600
 C       -2.5214300      -3.1657500       1.3201900
 C       -2.8775600      -3.8723100       0.1666800
 C       -2.4546500       1.9041200      -2.1601900
 C       -0.7048600       0.5656700      -1.1227100
 C        0.2284300       1.1412400      -2.0038200
 C       -0.1750100       2.0843400      -2.9494000
 C       -1.5521500      -2.3450300      -1.1675800
 O        1.4174900      -2.5211100       1.1412900
 C        1.5382400       3.4349600       1.1433100
 C       -1.5162800       2.4757800      -3.0255800
 C        3.6150000       2.2865600       0.6745800
 C        2.9232100       3.4710800       0.9472700
 C       -1.1671700      -1.6434600      -0.0115700
 C       -2.3903600      -3.4575900      -1.0774900
 H        3.4687600       0.1525900       0.3736400
 H        1.8024700      -1.9161400       3.5687600
 H        2.7503000      -0.5435300       2.9264700
 H        1.0658700      -0.2717200       3.4001300
 H       -0.2318700       2.1989400       1.2120400
 H       -1.4099200      -1.5026100       2.1334300
 H       -2.9112600      -3.4729200       2.2935900
 H       -2.7910400       0.5004100      -0.5544600
 H       -3.5043600       2.2019400      -2.2159400
 H       -1.8303400       3.2188100      -3.7624000
 H       -1.1795000      -2.0203500      -2.1414300
 H        1.2747700       0.8377000      -1.9503200
 H        0.5611100       2.5149300      -3.6323700
 H        4.6964900       2.3061500       0.5205500
 H        3.4621900       4.4193100       1.0106500
 H        0.9923200       4.3550800       1.3653800
 H       -2.6678100      -4.0018400      -1.9833900
 H       -3.5408300      -4.7377500       0.2356600

