%chk=gs_15_reactant_1.chk
%mem=2GB
%nprocshared=2
#P AM1 Freq NoSymm

dipolar_000155 AM1 SPE on relaxed reactant_1 (n=15)

0 1
 C       -0.0832300      -0.0079600      -0.1567000
 O       -2.2909900       0.0982600       0.4841400
 C        1.0954400      -0.1217400       0.1163400
 O        3.0021100      -1.3794400       0.5247600
 C       -1.4703900       0.1299400      -0.5611100
 C        2.5102700      -0.2653700       0.4495500
 C        3.2643800       1.0083800       0.6774900
 C       -3.6972500       0.2223500       0.1995700
 O       -1.8119600       0.2569800      -1.7184700
 H       -4.2021400       0.1757100       1.1705800
 H        2.7921500       1.5759600       1.4962000
 H       -4.0280000      -0.6036200      -0.4458300
 H        3.2082600       1.6373900      -0.2261900
 H       -3.9016200       1.1828200      -0.2943100
 H        4.3107300       0.7831400       0.9220800

