%chk=gs_180_reactant_2.chk
%mem=2GB
%nprocshared=2
#P AM1 Freq NoSymm

dipolar_002549 AM1 SPE on relaxed reactant_2 (n=17)

0 1
 C       -0.1294200      -0.8677900      -0.4970400
 F        0.0699200      -1.4577500      -1.6772500
 C       -2.1719000       0.4118000      -0.0392900
 C       -1.2697600       1.4590200       0.6788500
 C       -0.1322000       0.5786000       1.2896800
 C       -0.9274700      -0.6858600       1.6834300
 C       -1.4396400      -0.9424600       0.2495200
 C        0.6567500       0.0327300       0.1098500
 Cl       2.1299300       0.7169200      -0.4872000
 H       -2.2705200       0.5947600      -1.1186400
 H       -0.8646200       2.2191800      -0.0041100
 H       -1.8172300       1.9791100       1.4788200
 H        0.4704700       1.0636200       2.0669900
 H       -1.7397400      -0.4764100       2.3956300
 H       -0.2887500      -1.4949200       2.0650900
 H       -3.1828300       0.3874100       0.3934700
 H       -2.0328700      -1.8466500       0.0650200

