%chk=gs_157_reactant_2.chk
%mem=2GB
%nprocshared=2
#P AM1 Freq NoSymm

dipolar_002154 AM1 SPE on relaxed reactant_2 (n=20)

0 1
 C       -1.7642900       1.6718800       0.2066300
 C       -2.5710600       0.3790400       0.5171100
 F        1.5346300       1.5419700       1.0095100
 F        2.2210100       1.1082800      -0.9934800
 F        2.2537600      -0.4432900       0.5169900
 C       -1.7529100       0.2666800      -1.7320800
 C       -0.5659300      -0.8891100      -0.0802200
 C        0.1521000       0.2180600      -0.3471200
 C       -0.8225700       1.2216800      -0.9562400
 C        1.5332900       0.5862400       0.0474800
 C       -1.9980700      -0.6480700      -0.5144800
 Cl      -0.1102200      -2.3057600       0.7968600
 H       -1.2475600      -0.2480300      -2.5617200
 H       -2.5991600      -1.5535800      -0.6547900
 H       -0.3522800       2.0395800      -1.5151900
 H       -1.1910900       2.0407800       1.0678100
 H       -2.4444600       0.0254600       1.5500400
 H       -2.4220300       2.4831600      -0.1380300
 H       -2.6701800       0.7555600      -2.0924600
 H       -3.6464600       0.5193800       0.3361700

