%chk=gs_109_reactant_2.chk
%mem=2GB
%nprocshared=2
#P AM1 Freq NoSymm

dipolar_001418 AM1 SPE on relaxed reactant_2 (n=16)

0 1
 C       -0.4533600       0.1368700      -0.0206300
 C       -1.6994800      -0.6243100       0.1545600
 C       -2.9474800       0.2068800       0.0218800
 O       -1.7355700      -1.8287800       0.3876000
 N        0.7663700      -0.3608000       0.0526700
 C        1.7768500       1.6235900      -0.3490600
 N        1.8907400       0.3340600      -0.1050800
 C        1.0275500      -1.7881300       0.3263100
 N        1.7985300       2.7767400      -0.5690700
 H        0.5895300      -2.0564800       1.2937400
 H       -2.9820600       0.6768300      -0.9748900
 H       -3.8333100      -0.4233300       0.1702900
 H       -2.9370100       1.0241700       0.7617500
 H        2.1132300      -1.9119700       0.3344700
 H       -0.5245300       1.2055700      -0.2292600
 H        0.5645200      -2.3969900      -0.4578100

