%chk=gs_160_reactant_2.chk
%mem=2GB
%nprocshared=2
#P AM1 Freq NoSymm

dipolar_002209 AM1 SPE on relaxed reactant_2 (n=18)

0 1
 C       -2.7736800      -0.4686600      -0.1338600
 C       -0.2896700      -0.6586700      -0.7584200
 O       -1.8379800      -2.2679800      -1.3994600
 C       -1.6499900      -1.2068100      -0.8071500
 C        0.8935100      -1.3310100      -1.5081600
 Br      -0.3199000       1.5095000       1.2329900
 C        0.3168800       0.3166000      -0.0514400
 C        1.8259100       0.2165400      -0.3922300
 C        2.3283500      -1.0923800       0.2577600
 O        1.7210600      -0.1793800      -1.7636700
 C        1.7463600      -2.0637500      -0.4511300
 H       -2.6254600      -0.4712600       0.9582100
 H        1.7805600      -3.1440800      -0.3163000
 H       -3.7253700      -0.9620300      -0.3705100
 H        0.6291700      -1.8718500      -2.4214000
 H        2.4204700       1.1253300      -0.2528400
 H        2.9694200      -1.1469200       1.1364500
 H       -2.8041000       0.5836200      -0.4556100

