%chk=gs_132_reactant_2.chk
%mem=2GB
%nprocshared=2
#P AM1 Freq NoSymm

dipolar_001731 AM1 SPE on relaxed reactant_2 (n=17)

0 1
 C       -0.1704700      -1.3879100       0.4816400
 C       -0.5823300      -0.2827400       1.4821000
 C       -0.4804800       0.8457500       0.4335800
 C       -1.4944000       0.3279400      -0.6408000
 C        0.8905900       0.5314800      -0.1142200
 C        1.1053000      -0.7889100      -0.1036000
 C       -1.2861400      -1.2151100      -0.6012900
 F        1.6602400       1.4803700      -0.6687200
 H       -0.0762800      -2.4074700       0.8772500
 H        0.1312600      -0.1648700       2.3106500
 H       -1.6011000      -0.4115400       1.8796400
 H       -0.6340900       1.8810300       0.7628700
 H       -2.2057400      -1.7333900      -0.2893600
 H       -2.5191000       0.6026000      -0.3494600
 H       -1.2961600       0.7668500      -1.6291500
 H        1.9316700      -1.3366500      -0.5569000
 H       -0.9781600      -1.6308900      -1.5713300

