%chk=gs_110_reactant_1.chk
%mem=2GB
%nprocshared=2
#P AM1 Freq NoSymm

dipolar_001420 AM1 SPE on relaxed reactant_1 (n=27)

0 1
 C        1.2979800       1.1989500       0.6629900
 C        1.9831600      -2.2398100      -1.0896800
 C        3.7882600       0.7144700       0.6914200
 O        1.1691800       0.0206000       0.1073700
 O        2.7950600       2.7680400       1.4701100
 C        0.1340600      -0.6588900      -0.3295200
 C        0.5124000      -1.9211700      -0.9735800
 C       -1.2445500      -0.1966800      -0.1701300
 O       -0.3518000      -2.6864600      -1.4045500
 C       -1.6944900       0.3624600       1.0447200
 C       -3.0215500       0.7647000       1.1887700
 C       -3.9195900       0.6259700       0.1252000
 C       -3.4846300       0.0720100      -1.0834200
 C       -2.1617200      -0.3415000      -1.2324300
 C        2.6321100       1.6440000       0.9741100
 H        3.8062600       0.4205400      -0.3694500
 H        2.4937500      -1.4823500      -1.7048700
 H        2.0929900      -3.2275400      -1.5547400
 H        4.7264600       1.2212900       0.9516400
 H        2.4689000      -2.2364600      -0.1022000
 H       -1.8275100      -0.7692400      -2.1769700
 H        3.6936600      -0.2101700       1.2829000
 H        0.4207900       1.8157100       0.8597900
 H       -1.0138100       0.4556800       1.8923200
 H       -3.3571000       1.1860200       2.1389500
 H       -4.9570000       0.9488000       0.2385800
 H       -4.1808000      -0.0360200      -1.9181900

