%chk=gs_156_reactant_1.chk
%mem=2GB
%nprocshared=2
#P AM1 Freq NoSymm

dipolar_002138 AM1 SPE on relaxed reactant_1 (n=40)

0 1
 C       -0.1902000      -0.0994800      -0.0038300
 C        0.4727100      -1.4088300      -0.2536800
 C        2.4381300      -2.8396800      -0.1545100
 C        1.7213700      -3.8780500      -0.7584200
 C        3.0431300       0.3142600      -2.9552000
 C        1.6938200       1.1695200      -1.1051300
 C        0.3972800       1.0721000      -0.3570700
 C        1.8191500      -1.6138700       0.0963000
 C        0.2498500       2.0511700       2.4170000
 C       -1.7059800      -1.0216200       1.7631200
 C       -0.1507500       2.4355800      -0.0288800
 C       -1.5067100      -0.1423500       0.6820600
 C       -2.5709400       0.6819500       0.2751400
 C       -3.7948300       0.6428800       0.9460200
 C       -0.2451300      -2.4654500      -0.8402500
 O       -0.5076100       3.1858300      -0.9496000
 N        1.7812700       0.4925300      -2.2656400
 C        0.3782600      -3.6875500      -1.0995700
 C       -2.9264500      -1.0522400       2.4380000
 O        2.6067400       1.8820600      -0.6641800
 N       -0.1849800       2.8125600       1.2609300
 C       -3.9748700      -0.2189800       2.0321600
 H        2.2069200      -4.8364400      -0.9566400
 H        3.4832300      -2.9860000       0.1279200
 H        3.6586700      -0.4647400      -2.4713200
 H        2.8526500       0.0177700      -3.9946000
 H        1.0200500      -0.1376600      -2.4971400
 H       -0.8898400      -1.6716100       2.0840500
 H        2.3795200      -0.8096000       0.5770400
 H        1.0658600       1.3724400       2.1406300
 H        0.6242900       2.7460800       3.1811000
 H       -0.5683400       1.4585900       2.8567400
 H       -1.2941100      -2.3203000      -1.1067400
 H       -0.1874500      -4.4954100      -1.5695300
 H       -2.4437900       1.3444500      -0.5820900
 H       -4.6139800       1.2846500       0.6134600
 H       -0.5936000       3.7304300       1.4239900
 H       -4.9325600      -0.2475900       2.5570900
 H       -3.0610200      -1.7300000       3.2841500
 H        3.6093700       1.2547700      -2.9497900

