%chk=gs_153_reactant_1.chk
%mem=2GB
%nprocshared=2
#P AM1 Freq NoSymm

dipolar_002058 AM1 SPE on relaxed reactant_1 (n=27)

0 1
 C        2.4967900      -3.8784600      -1.1497400
 N        2.1229600      -2.4761600      -1.1857500
 C        1.1185700      -2.0048500      -0.4436600
 O        0.4471700      -2.6929400       0.3273000
 C        0.8407500      -0.4862300      -0.4812900
 Cl       1.4246300       0.2811600      -2.0586100
 C       -0.5689900      -0.1743100      -0.3434900
 C       -1.5844800       0.3882000       0.0007200
 C       -0.0381500       1.9423700       1.9236600
 C       -1.3431300       2.4520200       1.2819400
 C        1.1784300       1.6630300       0.9966600
 F       -3.3548800       1.9359900       0.1352000
 F       -2.8704200       0.7369900       1.8967500
 C        1.5638900       0.1994000       0.7114500
 C       -2.3091000       1.3701400       0.8127900
 H        2.6936600      -4.2014300      -0.1166800
 H        1.6982500      -4.5160100      -1.5616200
 H        3.4052800      -4.0169900      -1.7475400
 H        2.5942000      -1.8505800      -1.8310500
 H        1.0646500       2.2051100       0.0435200
 H       -1.1240800       3.0877200       0.4101600
 H        1.3505200      -0.4249200       1.5937300
 H       -0.2579200       1.0564100       2.5426100
 H       -1.9105000       3.0618500       2.0030600
 H        0.2704700       2.7236500       2.6335100
 H        2.0611100       2.1067100       1.4807100
 H        2.6424300       0.1200500       0.5103000

