%chk=gs_175_reactant_2.chk
%mem=2GB
%nprocshared=2
#P AM1 Freq NoSymm

dipolar_002460 AM1 SPE on relaxed reactant_2 (n=30)

0 1
 C        2.2510300       0.4659500      -0.2480200
 C        2.0818600      -0.9385900      -0.1814800
 C        3.1423300      -1.7925500      -0.4897100
 C        4.3917500      -1.2835000      -0.8560800
 C        4.5784900       0.1044900      -0.9160100
 C       -1.8863800      -0.1691500       0.4442200
 C       -2.4629700      -1.1606400       1.2786500
 N       -0.0452800       1.2721300       0.3182800
 C        1.2329300       1.4572500       0.0111800
 N       -0.5387900       0.0762700       0.6176000
 C       -2.7133300       0.4015400      -0.5570000
 C       -0.8593600       2.5115400       0.4621600
 C       -4.0509000       0.0219600      -0.6805400
 C       -4.6098700      -0.9401400       0.1673300
 C       -3.7970700      -1.5335100       1.1435500
 C        3.5275000       0.9644500      -0.6170600
 H        1.5308500       2.5026300      -0.0580600
 H        2.9898600      -2.8734700      -0.4354500
 H        5.2168700      -1.9604500      -1.0894000
 H        1.1156200      -1.3339300       0.1193600
 H       -1.8311300      -1.6220400       2.0410500
 H       -2.2982400       1.1195000      -1.2643000
 H       -0.2285300       3.2800100       0.9225400
 H        3.6788800       2.0456800      -0.6691700
 H       -1.2063700       2.8660800      -0.5151500
 H       -1.7151500       2.3030100       1.1109800
 H       -4.6614900       0.4790000      -1.4641800
 H       -5.6571000      -1.2321300       0.0628400
 H       -4.2110600      -2.2947600       1.8103100
 H        5.5509000       0.5151600      -1.1982700

