%chk=gs_196_reactant_1.chk
%mem=2GB
%nprocshared=2
#P AM1 Freq NoSymm

dipolar_002805 AM1 SPE on relaxed reactant_1 (n=29)

0 1
 C       -1.5065800       0.2973300       0.1630300
 C       -2.6769300      -0.3875600      -0.2342800
 C       -1.5656900       1.6997000       0.3089500
 C       -2.7506100       2.3880500       0.0534800
 C       -3.8541000       0.3085300      -0.5045400
 C        0.1158300      -2.7405000      -0.5300100
 C       -0.2960200      -0.4723700       0.4177500
 C       -3.8964500       1.6990600      -0.3594000
 C        1.7813600       0.9469500      -0.1354300
 C        1.0381200      -0.2148100       0.3432500
 C       -0.3508000      -1.9991800       0.7392900
 O        0.8075900      -2.1242100       1.5724300
 C        1.7222900      -1.5812300       0.6087500
 C        1.4242100      -2.4800700      -0.6099900
 O        3.0304800       0.5874100      -0.4975000
 O        1.3856500       2.0988900      -0.2254300
 C        3.8794400       1.6253200      -0.9990600
 H       -2.7810800       3.4729000       0.1790700
 H       -4.8215900       2.2437500      -0.5620200
 H       -2.6606800      -1.4724800      -0.3522500
 H       -0.5358000      -3.2847100      -1.2124700
 H        2.1471900      -2.7548800      -1.3770600
 H       -0.6748300       2.2382900       0.6240100
 H        4.0160500       2.4128900      -0.2433300
 H        2.7506400      -1.5476900       0.9795000
 H       -1.2570200      -2.3568800       1.2373400
 H        4.8399800       1.1478300      -1.2256800
 H        3.4529100       2.0690200      -1.9107200
 H       -4.7444200      -0.2375500      -0.8243600

