%chk=gs_105_reactant_2.chk
%mem=2GB
%nprocshared=2
#P AM1 Freq NoSymm

dipolar_001392 AM1 SPE on relaxed reactant_2 (n=27)

0 1
 C        2.3967400      -0.3189400      -0.6749300
 C       -0.3655300       0.1419700       0.2612300
 C        1.9094500       0.8329700       0.1512200
 O       -2.6418600      -0.2906200      -0.1495300
 N        0.6578700       1.1179200       0.3622700
 C       -0.0281300      -1.1593700       0.7702100
 C       -1.0940700      -2.1960900       1.0461600
 C       -1.6424900       0.6132100      -0.2316300
 C        0.3367200       2.4439300       0.9375200
 O        1.1579300      -1.4691200       1.0278700
 C       -3.9064300       0.1077100      -0.6833700
 O       -1.8324800       1.7237300      -0.7242000
 O        1.7995100      -0.6461600      -1.6879400
 C        3.7376600      -0.8669500      -0.2901400
 H        2.6549400       1.5461200       0.5144100
 H        0.0183200       3.1180500       0.1357300
 H       -3.8245300       0.3445600      -1.7546200
 H        3.8917500      -1.8456900      -0.7630500
 H        3.8454600      -0.9368500       0.8008400
 H        1.2357000       2.8391600       1.4238900
 H       -0.4710300       2.3332400       1.6689700
 H       -0.6170700      -3.0358500       1.5682600
 H       -1.9231400      -1.7962600       1.6433400
 H       -1.5202700      -2.5572200       0.0980300
 H       -4.2998300       0.9860300      -0.1504500
 H       -4.5767900      -0.7483500      -0.5394800
 H        4.5084000      -0.1681800      -0.6609000

