%chk=gs_181_reactant_2.chk
%mem=2GB
%nprocshared=2
#P AM1 Freq NoSymm

dipolar_002585 AM1 SPE on relaxed reactant_2 (n=29)

0 1
 C       -3.3578200      -2.5987300       0.2687600
 N       -2.1054700      -1.8740000       0.2112100
 C       -2.0691000      -0.5319200       0.0827800
 O       -3.1149500       0.1507200       0.0089600
 C       -0.7507300       0.1202300       0.0051800
 C       -0.0326500       2.4843000      -0.2674000
 C        0.5409800      -0.5862100       0.0421500
 C       -0.5817600       3.8428600      -0.6028300
 C        1.3446000       2.3495300      -0.0085600
 C        1.4241900      -0.5101600      -1.0528300
 C        0.9028700      -1.3769400       1.1493800
 N       -0.8677000       1.4374100      -0.2015500
 C        2.6356100      -1.2003300      -1.0359400
 C        2.9852500      -1.9830200       0.0700500
 C        2.1148000      -2.0708200       1.1605600
 N        2.4942300       2.3329700       0.2122400
 H       -1.2342100      -2.3922200       0.2259900
 H       -3.1468900      -3.6548000       0.4767700
 H        0.2331100      -1.4357300       2.0097900
 H        2.3831800      -2.6762500       2.0294500
 H       -1.8700600       1.6743800      -0.2957900
 H       -1.6819900       3.8256300      -0.5776100
 H       -0.2313600       4.6020800       0.1141500
 H       -0.2708200       4.1697000      -1.6102200
 H        1.1533200       0.0937700      -1.9214600
 H        3.3096300      -1.1315800      -1.8929700
 H        3.9342500      -2.5240800       0.0808400
 H       -4.0068700      -2.2036500       1.0656100
 H       -3.9132700      -2.5310600      -0.6816800

