%chk=gs_174_reactant_1.chk
%mem=2GB
%nprocshared=2
#P AM1 Freq NoSymm

dipolar_002457 AM1 SPE on relaxed reactant_1 (n=28)

0 1
 C        3.8551700       1.5815900       0.2692200
 N        3.1201500       0.3427500       0.4029600
 C        1.9155600       0.1587900      -0.1712200
 O        1.3301600       1.0375500      -0.8195600
 N        1.4792400      -1.1638300      -0.0264600
 N        0.2304000      -1.4522200      -0.2531300
 C       -0.8332500      -0.6356700      -0.1236400
 C       -0.6779500       0.6016400       0.6921600
 C       -3.3887600      -0.3609100      -0.0883200
 C       -1.3386900       2.8457500       0.9497900
 O       -0.0457300       0.6522700       1.7309600
 C       -2.1570900      -1.0106900      -0.6713000
 O       -2.2635000      -1.8322600      -1.5779600
 O       -1.3682600       1.6240800       0.1970100
 C        0.0602300      -2.8803400      -0.6191900
 H        4.6165400       1.6354100       1.0577700
 H        4.3582300       1.6637800      -0.7098300
 H        3.1727700       2.4367600       0.3735500
 H       -0.3082500       3.2235300       1.0121100
 H        0.0606500      -2.9701700      -1.7114700
 H        3.5698200      -0.4673600       0.8174000
 H        0.9274600      -3.3989600      -0.2008400
 H       -1.7349600       2.6844200       1.9624000
 H       -1.9714900       3.5521500       0.4009900
 H       -3.2917200      -0.1532800       0.9865900
 H       -3.5805700       0.5946100      -0.6000200
 H       -4.2409800      -1.0292700      -0.2706700
 H       -0.8717200      -3.2765200      -0.2090600

