%chk=gs_152_reactant_1.chk
%mem=2GB
%nprocshared=2
#P AM1 Freq NoSymm

dipolar_002052 AM1 SPE on relaxed reactant_1 (n=15)

0 1
 O        0.0665100      -1.9100100       1.1256100
 N       -1.2281300       0.2584800      -0.3017700
 C        0.7219000      -0.9825100       0.6727000
 C        0.0918700       0.1370000      -0.0726500
 C       -2.2111900      -0.7360200       0.1803600
 N        1.5795200       2.0263800      -1.0270400
 C        0.8905200       1.1878700      -0.6071100
 C        2.2146100      -0.8979400       0.8340000
 O       -1.6842900       1.2256700      -0.9374600
 H        2.5658100      -1.7734200       1.3937200
 H       -1.9964200      -1.7074300      -0.2797000
 H       -2.1320700      -0.8298100       1.2689000
 H        2.4899900       0.0244100       1.3704800
 H       -3.1872200      -0.3498600      -0.1265100
 H        2.7072300      -0.8615900      -0.1508300

