%chk=gs_176_reactant_2.chk
%mem=2GB
%nprocshared=2
#P AM1 Freq NoSymm

dipolar_002468 AM1 SPE on relaxed reactant_2 (n=27)

0 1
 C        0.9741200       0.0995900      -0.0912500
 C       -0.4231400       0.3192300       0.2989500
 C       -1.2206900       1.3767100       0.0164400
 C       -3.1521600      -0.0612100      -0.4949100
 C       -2.6230900       1.0420400       0.4835700
 C       -2.2456200      -1.2815200      -0.1609600
 C       -1.3167100      -0.7259300       0.9662100
 C        1.7923800       1.1700600      -0.5123400
 C        1.5381700      -1.1914100      -0.0625900
 C        2.8638100      -1.4060100      -0.4501200
 C       -2.3037100       0.1833200       1.7254400
 C        3.1149800       0.9549500      -0.8951600
 C        3.6593300      -0.3359000      -0.8677900
 H        1.3855500       2.1835000      -0.5263900
 H       -0.9569500       2.2542400      -0.5773200
 H       -3.0764600       0.2573600      -1.5445400
 H       -4.2109600      -0.2781500      -0.2853400
 H       -1.6655900      -1.6378500      -1.0244300
 H        3.7300800       1.8005500      -1.2130900
 H        0.9302100      -2.0397100       0.2562900
 H        3.2763800      -2.4176700      -0.4240600
 H       -0.7995000      -1.4975800       1.5495400
 H        4.6969400      -0.5027100      -1.1664300
 H       -1.8251900       0.7571600       2.5332100
 H       -3.1776000      -0.3584200       2.1209200
 H       -3.3054000       1.8921600       0.6142400
 H       -2.8382400      -2.1278800       0.2179900

