%chk=gs_183_reactant_1.chk
%mem=2GB
%nprocshared=2
#P AM1 Freq NoSymm

dipolar_002635 AM1 SPE on relaxed reactant_1 (n=27)

0 1
 C       -1.9481700       1.0970800       0.4959600
 N       -1.2352700       0.0243000       0.6316200
 C        0.1004300      -0.0464100       0.1159400
 O       -0.7947700       0.4987400      -1.9848800
 C        1.1193700      -0.4340500       1.0770900
 C        0.3299400       0.2018500      -1.2643100
 O        0.8437700      -0.6241500       2.2869000
 O        1.4341800       0.1476700      -1.8349700
 C        3.4811400      -0.8924300       1.5183300
 N        2.3901700      -0.5872400       0.6227000
 C       -0.6171100       0.7268200      -3.3800400
 C       -1.8445000      -1.2020800       1.1765300
 C       -3.3918700       1.1713700       0.8065400
 H       -3.7883900       2.1602500       0.5481600
 H       -1.4204400       1.9736600       0.1128000
 H       -3.5626600       0.9865300       1.8816100
 H       -2.3507900      -0.9874200       2.1262600
 H        2.5509100      -0.3780900      -0.3608500
 H        4.4079300      -0.9731100       0.9353800
 H        3.6229400      -0.1119400       2.2864700
 H       -0.2075700      -0.1630100      -3.8827300
 H       -1.6140500       0.9508000      -3.7806100
 H       -1.0599800      -1.9443600       1.3351000
 H       -2.5788900      -1.5844300       0.4519500
 H       -3.9517400       0.3947600       0.2582400
 H        3.3222700      -1.8466300       2.0478600
 H        0.0553000       1.5789000      -3.5637800

