%chk=gs_195_reactant_2.chk
%mem=2GB
%nprocshared=2
#P AM1 Freq NoSymm

dipolar_002784 AM1 SPE on relaxed reactant_2 (n=21)

0 1
 C       -0.1932900      -1.7039400      -1.0865900
 C        0.2461800      -0.8227800      -0.3801100
 C       -0.8273200      -2.2575200      -3.3477800
 Br       1.9178600       1.4243900       0.1309500
 Br      -0.0294600       0.0316700       2.2888800
 C       -2.6242600      -0.2364000      -1.6158800
 C       -0.9588000       1.2681900      -0.1799500
 C       -2.3121400       0.5367400      -0.3030000
 C       -2.5594700      -1.7770900      -1.6014300
 C       -1.1642600      -2.4054800      -1.9247300
 C        0.2142400       0.4184900       0.3418900
 N       -0.5881700      -2.1289400      -4.4755300
 H       -2.0058700       0.1564000      -2.4416100
 H       -3.6608600       0.0127800      -1.8879300
 H       -3.0716700       1.3270300      -0.2070200
 H       -0.6573700       1.6440900      -1.1707100
 H       -2.4630600      -0.1196600       0.5697400
 H       -1.0559600       2.1419700       0.4805200
 H       -2.8543200      -2.1595400      -0.6124600
 H       -3.2714100      -2.1885600      -2.3327100
 H       -1.1930100      -3.4868000      -1.7111600

