%chk=gs_120_reactant_1.chk
%mem=2GB
%nprocshared=2
#P AM1 Freq NoSymm

dipolar_001530 AM1 SPE on relaxed reactant_1 (n=26)

0 1
 C        0.4351100      -3.0830300      -1.1258700
 N        0.2532600      -1.9885000      -0.6106800
 C        0.0925000      -0.7688100      -0.2200600
 C        1.3027300       0.0063700       0.1346400
 C        1.3425500       1.4075600      -0.0054600
 C        3.6534600       1.4486200       0.7314200
 C        3.6276900       0.0561300       0.8656000
 C        2.5067800       2.1179400       0.2921400
 C        2.4662900      -0.6578300       0.5713500
 C       -1.2856900      -0.2287800      -0.1679600
 C       -2.2743500      -0.7352700      -1.0341200
 C       -3.5817100      -0.2524600      -0.9833400
 C       -3.9316900       0.7419900      -0.0629900
 C       -2.9608700       1.2437200       0.8095100
 C       -1.6502900       0.7648100       0.7608900
 H        0.4658500      -3.9778800      -0.4748000
 H       -0.9104300       1.1537900       1.4613800
 H        4.5620700       2.0079200       0.9658300
 H        4.5171400      -0.4782200       1.2079600
 H        2.5187500       3.2037700       0.1711800
 H        2.4541500      -1.7436600       0.6876600
 H       -2.0103000      -1.5124000      -1.7548900
 H       -4.3321700      -0.6534800      -1.6688100
 H       -4.9558900       1.1197700      -0.0232800
 H       -3.2255900       2.0110400       1.5409100
 H        0.4653600       1.9439800      -0.3684300

