%chk=gs_140_reactant_2.chk
%mem=2GB
%nprocshared=2
#P AM1 Freq NoSymm

dipolar_001839 AM1 SPE on relaxed reactant_2 (n=31)

0 1
 C       -1.9511400      -0.0427000      -1.3366000
 N       -1.5934300      -2.9085800      -1.4017500
 C       -0.8308700      -0.7505600      -0.6857100
 O       -2.8285300      -0.6988900      -1.9406900
 C       -0.6637000      -2.2238000      -0.7231800
 C       -1.6006200      -4.3495500      -1.5218900
 O        0.3100900      -2.7389500      -0.1382800
 N        0.1599900      -0.1812200       0.0275700
 C        2.1232100       0.4250000       1.9590600
 N        0.3926500       1.0628700       0.2807300
 N       -1.9746600       1.3030200      -1.2523500
 C        1.4642700       1.3567400       1.1279900
 C        1.8768700       2.7043700       1.1518400
 C        2.9365300       3.1064000       1.9619900
 C        3.5998300       2.1758300       2.7699200
 C        3.1840100       0.8393800       2.7640900
 C       -3.0206800       2.1137900      -1.8370400
 H       -2.3408200      -2.3390800      -1.8066100
 H       -1.6656200      -4.6496300      -2.5790800
 H       -0.6761400      -4.7545000      -1.0948100
 H       -2.4582700      -4.7904000      -0.9878700
 H        0.7957700      -0.9322600       0.3756300
 H        1.8049600      -0.6186300       2.0098500
 H       -1.2170700       1.7453200      -0.7213700
 H       -3.6553100       2.5709400      -1.0596600
 H        1.3544900       3.4213800       0.5154600
 H        3.2471100       4.1537900       1.9632000
 H        4.4286700       2.4905700       3.4075900
 H        3.6831900       0.1090300       3.4052300
 H       -2.5842900       2.9234100      -2.4417400
 H       -3.6519500       1.4903300      -2.4806800

