%chk=gs_169_reactant_1.chk
%mem=2GB
%nprocshared=2
#P AM1 Freq NoSymm

dipolar_002374 AM1 SPE on relaxed reactant_1 (n=27)

0 1
 C        3.2060000      -0.5875500       2.8485700
 N        2.4150000      -0.0106000       1.7780900
 C        1.2608000      -0.5710700       1.3924700
 O        0.8080500      -1.5936000       1.9196200
 C       -0.7290800      -0.3479600      -0.0854200
 C       -1.5120400       0.2359200      -1.2412700
 O       -2.2710600      -1.0701900       1.5574000
 N       -2.6384600       0.8710600      -0.8876400
 C       -3.5431400       1.4268200      -1.8775100
 C       -1.5047500      -1.4214400       0.6560300
 Br       1.2728100       1.5961100      -0.6056500
 C       -0.4222700      -3.1394500      -0.7669400
 O       -1.1380900       0.0822800      -2.4048300
 N       -1.4351900      -2.6664400       0.1624700
 C        0.4878300       0.0814200       0.2775400
 H        2.6367600      -0.6116200       3.7908400
 H        4.1059700       0.0219600       2.9899600
 H        3.5052000      -1.6188600       2.6052200
 H       -1.9713700      -3.3621200       0.6777000
 H       -2.8978800       0.8811100       0.0952100
 H       -3.0169900       2.1411100      -2.5284400
 H       -4.3559600       1.9493400      -1.3597700
 H       -3.9731800       0.6367600      -2.5138400
 H       -0.2659800      -2.4077700      -1.5701700
 H       -0.7682000      -4.0762700      -1.2220600
 H        0.5395800      -3.3231600      -0.2616400
 H        2.7467200       0.8297400       1.3178500

