%chk=gs_112_reactant_2.chk
%mem=2GB
%nprocshared=2
#P AM1 Freq NoSymm

dipolar_001450 AM1 SPE on relaxed reactant_2 (n=19)

0 1
 C        1.5873200       0.0186100       0.2493600
 C        0.2140100      -0.1748300      -0.2091200
 O        2.0018300      -0.2210000       1.3695200
 C       -0.8979600      -0.4418200       0.5022700
 C       -2.0723700      -0.3740500      -0.5023400
 Cl      -1.1219500      -0.6743700       2.1770400
 C       -0.3293000       0.0598700      -1.6426100
 C       -1.1294800       1.3815800      -1.6189500
 O       -1.4080300      -0.8967400      -1.6602600
 O        2.3614400       0.5096800      -0.7348600
 C       -2.2206800       1.1134400      -0.8966900
 C        3.7351800       0.7547200      -0.4087700
 H       -0.7978700       2.3194500      -2.0626200
 H        4.1979400       1.1474900      -1.3215000
 H        3.8138500       1.4916000       0.4040700
 H        0.3804700      -0.0957500      -2.4599800
 H       -3.0320900       1.7657700      -0.5773600
 H       -2.9743300      -0.9329000      -0.2332300
 H        4.2316200      -0.1776300      -0.1020400

