%chk=gs_192_reactant_2.chk
%mem=2GB
%nprocshared=2
#P AM1 Freq NoSymm

dipolar_002765 AM1 SPE on relaxed reactant_2 (n=21)

0 1
 C       -2.1530500       0.1646900      -2.2098300
 C       -0.5921800       1.4152500      -0.4491100
 C        0.2128900       0.3918800       0.3720900
 Br       2.0914300       1.0178300       0.5669700
 Br      -0.5654500       0.2169400       2.2061500
 C        0.1503600      -0.8836500      -0.2853700
 C       -2.0022900       0.9643400      -0.8845500
 C       -2.4255000      -1.3511300      -2.1328500
 C       -1.1601900      -2.2687700      -2.0863300
 C       -0.4754500      -2.3006600      -3.3867100
 C       -0.2868000      -1.7120700      -1.0544400
 N        0.0432300      -2.3091800      -4.4242500
 H       -0.6532900       2.3406100       0.1416300
 H        0.0093900       1.6418100      -1.3438900
 H       -2.4945900       0.4263500      -0.0577800
 H       -2.5735600       1.8969000      -1.0052800
 H       -3.0170800      -1.5856500      -1.2349600
 H       -3.0170700       0.5940600      -2.7386800
 H       -1.4666500      -3.3030700      -1.8584300
 H       -3.0185100      -1.6697400      -3.0033900
 H       -1.2867400       0.3553100      -2.8668900

