%chk=gs_188_reactant_1.chk
%mem=2GB
%nprocshared=2
#P AM1 Freq NoSymm

dipolar_002696 AM1 SPE on relaxed reactant_1 (n=24)

0 1
 C        3.1206800      -1.5298900      -0.3969600
 N        1.8004100      -0.9647700      -0.6088000
 C        0.8223800      -1.1128000       0.2950500
 O        0.8996400      -1.8702600       1.2711700
 C       -0.4420900      -0.3634100       0.0280800
 C       -1.7864300      -1.0220000       0.0461900
 O       -2.7710300      -0.3733900      -0.3397600
 N       -0.5239600       0.9167100      -0.2545000
 C        0.3550300       1.9599600      -0.2733800
 N       -1.8342700      -2.2864200       0.4787300
 C        1.6830200       1.8563900       0.1945400
 C       -0.1220100       3.2190700      -0.7022800
 N        2.7790900       1.8192700       0.5939000
 C       -3.0877800      -3.0085700       0.5744900
 N       -0.4994700       4.2650100      -1.0573400
 H        3.0478900      -2.6025900      -0.1680600
 H        3.7128300      -1.3951200      -1.3095700
 H        3.6318200      -1.0277000       0.4403100
 H       -0.9919500      -2.6705500       0.9043800
 H        1.6652800      -0.3359300      -1.3947600
 H       -1.5111700       1.1588200      -0.4740100
 H       -3.6509000      -2.9225300      -0.3656300
 H       -3.7195800      -2.6173200       1.3892500
 H       -2.8736700      -4.0662100       0.7689900

