%chk=gs_149_reactant_1.chk
%mem=2GB
%nprocshared=2
#P AM1 Freq NoSymm

dipolar_001958 AM1 SPE on relaxed reactant_1 (n=22)

0 1
 C        4.5028100       0.2924000      -1.3278000
 O        3.0793900       0.1542300      -1.2415700
 C        2.5452200       0.2578900      -0.0204700
 O        3.1986400       0.4597700       0.9974100
 N        1.1731000       0.1043400      -0.0955500
 N        0.6460200       0.2053100       1.1001300
 N       -0.5606200       0.1299000       1.4687000
 C       -1.6208200      -0.0915600       0.5884400
 C       -1.5709700      -0.2720700      -0.8136800
 C       -2.7546500      -0.4827800      -1.5223500
 C       -3.9896100      -0.5178500      -0.8679000
 C       -4.0463900      -0.3401500       0.5204400
 C       -2.8759200      -0.1297000       1.2394600
 H        5.0048400      -0.4910200      -0.7411000
 H        4.7522800       0.1854900      -2.3899800
 H        4.8194500       1.2805900      -0.9628700
 H        1.3199200       0.3749700       1.8721800
 H       -0.6174900      -0.2459000      -1.3298500
 H       -2.7080500      -0.6215100      -2.6049500
 H       -4.9069800      -0.6836700      -1.4372600
 H       -5.0066400      -0.3663500       1.0400000
 H       -2.8984900       0.0110900       2.3214300

