%chk=gs_141_reactant_1.chk
%mem=2GB
%nprocshared=2
#P AM1 Freq NoSymm

dipolar_001901 AM1 SPE on relaxed reactant_1 (n=24)

0 1
 C       -0.3231600       0.4806700      -0.7367200
 C       -0.0912200      -0.0247800       0.5001900
 O        0.5369200       1.1149100      -1.5275200
 N        2.1981100       0.5768100       0.8502400
 C        3.4760100       0.6136600       1.5260100
 C       -1.7759000       0.0638400      -1.0936200
 C        0.0870500       1.5941200      -2.8035100
 C       -1.7422100      -1.4649600      -1.3201300
 C       -1.4045100      -0.7587900       0.8353800
 O       -2.3615400       0.1309500       0.2130900
 C        1.1170300      -0.0999500       1.3165000
 O        1.1337800      -0.7492200       2.3800900
 C       -1.5232000      -1.9793400      -0.1062800
 H        2.1023900       1.0670600      -0.0337400
 H        4.2734800       0.1767400       0.9026500
 H        3.7667000       1.6466900       1.7777200
 H        0.9647900       2.0395000      -3.2861700
 H       -0.6934000       2.3588900      -2.6759900
 H       -0.2911400       0.7639600      -3.4181900
 H       -1.8251700      -1.9557400      -2.2888300
 H       -1.6121600      -0.9171400       1.8982500
 H       -1.3817800      -3.0174200       0.1931500
 H        3.4038800       0.0355200       2.4546100
 H       -2.3090200       0.6774300      -1.8260500

