%chk=gs_1_reactant_1.chk
%mem=2GB
%nprocshared=2
#P AM1 Freq NoSymm

dipolar_000017 AM1 SPE on relaxed reactant_1 (n=17)

0 1
 C       -2.2366700       0.4655600      -0.4415900
 C       -1.9193200       1.6180300       0.4806400
 O       -3.3557400       0.3040900      -0.9427000
 C       -1.1868300      -0.4808500      -0.7348100
 O       -0.0204200      -0.2731800      -0.1912500
 C        2.0945400       0.7906200       1.2318500
 C        2.2358200      -0.4805000       0.4296900
 C        1.0801600      -0.9652500      -0.2866500
 O        3.2988300      -1.1090400       0.3627300
 H       -1.3260900      -1.3513100      -1.3824400
 H       -2.7982600       2.2712400       0.5537600
 H       -1.6537600       1.2446300       1.4828300
 H       -1.0561800       2.1924100       0.1099100
 H        1.8511000       1.6368500       0.5693900
 H        3.0393300       0.9928300       1.7525100
 H        1.2755500       0.7059700       1.9629800
 H        1.0892200      -1.8710400      -0.8997900

