%chk=gs_186_reactant_2.chk
%mem=2GB
%nprocshared=2
#P AM1 Freq NoSymm

dipolar_002653 AM1 SPE on relaxed reactant_2 (n=41)

0 1
 C       -1.7470300      -0.9682500       2.2031100
 N        0.1528400       0.0601300       1.3338300
 C       -1.0130800      -0.4957200       1.0071900
 O       -1.2234300      -0.8905400       3.3330300
 C        1.2111000       0.5732200       0.6725500
 C        2.1734100       1.1914700       1.5681600
 C        1.4000200       0.4356100      -0.7795700
 C        4.2627100       2.2762500       1.7665400
 C        1.6821900       1.5550200      -1.5842400
 C        1.2598400      -0.8206700      -1.4002700
 C        1.7953400       1.4253500      -2.9690800
 N       -2.9925600      -1.4504500       2.0263800
 C       -1.5886800       0.6419900      -1.1392600
 C       -1.9658300      -1.7437400      -0.9428500
 O        3.2741600       1.6499400       0.9443000
 O        2.0208800       1.2785800       2.7876800
 C       -2.4098000      -1.7797000      -2.2661500
 C       -2.0268500       0.6014400      -2.4614900
 C       -2.4333100      -0.6103300      -3.0318400
 C       -1.5398200      -0.5334600      -0.3645900
 C        1.6281700       0.1760800      -3.5762600
 C        1.3671900      -0.9476200      -2.7848200
 C       -3.7892000      -1.9179800       3.1422500
 H       -1.9147000      -2.6666300      -0.3619900
 H       -3.2419800      -2.6731500       3.7272500
 H        0.2655300       0.0997300       2.3630000
 H        1.0553100      -1.7019600      -0.7907300
 H        4.6589700       1.5679900       2.5092900
 H        5.0630200       2.5946400       1.0878900
 H        3.8421500       3.1488200       2.2881900
 H        1.7884600       2.5356100      -1.1175500
 H       -1.2701500       1.5884400      -0.7003500
 H       -2.0475800       1.5196700      -3.0526600
 H       -3.3970000      -1.4514800       1.0965200
 H       -4.7108800      -2.3692500       2.7553100
 H       -2.7232700      -2.7294900      -2.7053900
 H        2.0017700       2.3076600      -3.5796400
 H       -2.7691200      -0.6417200      -4.0708200
 H        1.7044600       0.0778600      -4.6616600
 H        1.2429200      -1.9287300      -3.2489400
 H       -4.0581900      -1.0938300       3.8237600

