%chk=gs_126_reactant_1.chk
%mem=2GB
%nprocshared=2
#P AM1 Freq NoSymm

dipolar_001628 AM1 SPE on relaxed reactant_1 (n=36)

0 1
 C       -0.8587200      -1.6632400      -2.3340900
 C        0.2127600      -0.8615700      -1.7154000
 C       -0.3745700      -2.3834200      -3.6028300
 C        0.9170900      -0.4439700      -0.8167700
 C        1.2572700      -0.2640500       0.5994800
 C        1.1028500       1.1613600       1.1112400
 C        0.3516100       2.1287300       0.4304700
 C       -1.1823400      -1.1331200       0.9572400
 C        0.3071600      -1.2634800       1.3498200
 C        0.1914100       3.4135600       0.9617400
 C        1.5387400       2.7918300       2.8679200
 C        1.6964000       1.5109600       2.3351400
 C       -1.8209900      -2.2468800       0.0926700
 C       -1.1941800      -2.7200000      -1.2344700
 C       -2.0774500      -0.7844500      -2.6630300
 C        0.7825400       3.7497200       2.1821400
 H        0.4856900      -3.0347600      -3.3837000
 H       -1.8938400      -3.4484200      -1.6812100
 H       -0.2650100      -3.2756300      -1.0280100
 H       -1.8339000      -0.0638300      -3.4590000
 H       -0.0697900      -1.6581800      -4.3731900
 H       -1.1825700      -3.0068300      -4.0170600
 H       -0.1063500       1.8756500      -0.5277400
 H       -2.4177000      -0.2184400      -1.7838300
 H        2.2946500      -0.5761100       0.8001800
 H        0.6689900      -2.2841800       1.1459900
 H        2.2904800       0.7675200       2.8738100
 H        0.4360500      -1.0960000       2.4305000
 H       -0.3972200       4.1549200       0.4155100
 H       -1.3459200      -0.1567900       0.4759000
 H       -1.7809200      -1.0965900       1.8821800
 H        0.6596800       4.7533900       2.5962000
 H        2.0114000       3.0458500       3.8200100
 H       -1.9054200      -3.1524800       0.7190700
 H       -2.8610200      -1.9349500      -0.1034700
 H       -2.9107000      -1.4144300      -3.0134200

