%chk=gs_197_reactant_1.chk
%mem=2GB
%nprocshared=2
#P AM1 Freq NoSymm

dipolar_002808 AM1 SPE on relaxed reactant_1 (n=43)

0 1
 C       -3.2880300       0.8243200      -0.0776500
 O       -3.3108100       0.0359500      -2.3355300
 C       -0.3709300      -1.6346900      -2.2050600
 O       -1.3411400       2.5441500      -3.2339400
 C       -1.1492100       0.7878600      -1.5832700
 C       -2.6819300       0.4927000      -1.4063200
 C       -1.0880300       2.2335800      -2.0904800
 O       -0.7626400       3.0964700      -1.1329300
 C       -0.5313100      -0.1661300      -2.6455900
 C        0.9217600      -2.0514300      -1.4468900
 C        1.0043300      -1.1661900       1.0287000
 C        2.4878800      -0.7640200       1.1272600
 C        0.2109600      -0.0739500       0.4774400
 C       -0.4302400       0.5484800      -0.3389000
 O        2.6259900       0.3637800       1.8180000
 O        3.4046800      -1.3896000       0.6473700
 C        3.9652400       0.8506900       2.0104300
 C        0.5748900      -1.6179600       2.4286800
 O       -0.7054200      -1.3692500       2.6725000
 O        1.3241300      -2.1882400       3.1925900
 C       -1.2311100      -1.8327300       3.9297900
 C        0.8126800      -2.3771200       0.0571000
 C       -0.7159700       4.4865600      -1.5003400
 H       -1.2588600      -1.9511500      -1.6326600
 H       -2.2855300      -1.5358700       3.9404200
 H       -0.1764300      -2.8117900       0.2673700
 H       -1.1855900      -0.1136800      -3.5257800
 H        0.4463100       0.2443900      -2.9416100
 H       -1.7017300       4.8178800      -1.8563000
 H        1.7163400      -1.3058400      -1.6116200
 H       -0.4011900      -2.2243200      -3.1341600
 H        1.2885500      -2.9754500      -1.9193300
 H        1.5659200      -3.1262000       0.3386600
 H        4.4398800       1.0511400       1.0395100
 H        4.5600500       0.1131800       2.5678200
 H       -1.1388000      -2.9257500       3.9988000
 H        3.8680900       1.7773200       2.5869300
 H       -0.4360700       5.0278000      -0.5897400
 H        0.0344700       4.6458100      -2.2873500
 H       -2.9614400       1.8230000       0.2517300
 H       -0.6909100      -1.3615900       4.7627200
 H       -2.9189700       0.1056000       0.6721200
 H       -4.3823200       0.7696300      -0.1372100

