%chk=gs_189_reactant_1.chk
%mem=2GB
%nprocshared=2
#P AM1 Freq NoSymm

dipolar_002731 AM1 SPE on relaxed reactant_1 (n=35)

0 1
 C       -1.0556100       0.2547900      -0.0664400
 N       -2.5491200       2.0020500       0.6977700
 C       -1.9434100      -0.8242400      -0.4411800
 O        0.2057700      -0.0741900       0.0364600
 C       -1.4343800       1.7002400       0.0151500
 C        1.1775100       1.7128700       1.2780900
 C       -3.0525300       3.3616300       0.7606500
 C        1.2931300       0.5480900       0.5003500
 C        2.5580400      -0.1163100       0.2572700
 C        3.7535200       0.3854000       0.8203500
 C        2.6252500      -1.2767100      -0.5478900
 O       -0.7321500       2.5453000      -0.5543300
 C        3.8445600      -1.9166000      -0.7606500
 C        5.0233000      -1.4145200      -0.1956700
 N        1.1046300       2.6523700       1.9721300
 C       -1.5191200      -2.1693100      -0.3024900
 C       -2.3524900      -3.2157300      -0.6835900
 C       -3.6274800      -2.9549100      -1.2022900
 C       -4.0594800      -1.6311400      -1.3422000
 C        4.9675800      -0.2583800       0.5922200
 C       -3.2324000      -0.5742400      -0.9704800
 H       -0.5371800      -2.3802300       0.1226200
 H       -3.0772000       1.2543400       1.1372000
 H       -3.9138700       3.3891200       1.4382600
 H        1.7170000      -1.6665900      -1.0092200
 H       -2.2751000       4.0431000       1.1377700
 H       -3.3669700       3.7176200      -0.2336400
 H       -3.5782500       0.4496800      -1.1110300
 H        3.7241400       1.2830600       1.4418900
 H        3.8763300      -2.8139200      -1.3834500
 H       -2.0108700      -4.2465100      -0.5650800
 H       -4.2812300      -3.7799000      -1.4934700
 H       -5.0485300      -1.4185800      -1.7539900
 H        5.9771300      -1.9162800      -0.3724200
 H        5.8801800       0.1457900       1.0367000

