%chk=gs_11_reactant_1.chk
%mem=2GB
%nprocshared=2
#P AM1 Freq NoSymm

dipolar_000084 AM1 SPE on relaxed reactant_1 (n=18)

0 1
 C       -0.4893200      -0.1447100       0.0343600
 N       -1.3611500      -1.1038300       0.3962200
 C        0.9279300      -0.4989300       0.2693000
 O        1.2368100      -1.5977100       0.7644000
 C       -1.0104900       1.0774900      -0.5207100
 C        3.2526700       0.2837800       0.0574100
 C       -2.0769400      -1.9538700       0.7216100
 O       -0.2671000       2.0112700      -0.8810400
 N        1.8242900       0.4447300      -0.0896000
 C       -2.5114100       1.2050000      -0.6592000
 H       -3.0059200       1.1077700       0.3208400
 H        1.4278400       1.3006300      -0.4841100
 H       -2.7595800      -2.7438400       1.0149100
 H       -2.7499700       2.1846600      -1.0923700
 H        3.4596000      -0.6913800       0.5146000
 H       -2.9144500       0.4104800      -1.3077800
 H        3.7648800       0.3282400      -0.9180200
 H        3.6795600       1.0703100       0.7010700

