%chk=gs_114_reactant_1.chk
%mem=2GB
%nprocshared=2
#P AM1 Freq NoSymm

dipolar_001484 AM1 SPE on relaxed reactant_1 (n=18)

0 1
 C        1.3373700       0.0374400      -0.2926800
 N       -0.9762800      -1.5848700      -0.3123400
 C       -1.3068100      -0.3201200       0.2596500
 O        0.7124500       0.5152400      -1.2204000
 N       -2.4388800       0.1574800      -0.2646600
 O       -0.6846000       0.1667000       1.2048600
 N        1.3351800      -1.3278700       0.0570800
 C       -3.0728200       1.3601300       0.2364200
 O        2.2626100       0.6542000       0.4208000
 O        0.2431800      -2.0006300      -0.1898500
 C        2.5043100       2.0356100       0.0980400
 H       -2.9123000      -0.4058600      -0.9673700
 H        2.8720600       2.1256500      -0.9338500
 H        1.5786400       2.6163000       0.2165100
 H       -3.7417200       1.1409800       1.0853500
 H        3.2658500       2.3781500       0.8069800
 H       -2.3035400       2.0670900       0.5741700
 H       -3.6620000       1.8181400      -0.5677800

