%chk=gs_107_reactant_2.chk
%mem=2GB
%nprocshared=2
#P AM1 Freq NoSymm

dipolar_001402 AM1 SPE on relaxed reactant_2 (n=20)

0 1
 C       -0.6540400      -2.2712800      -0.9907000
 C       -2.2293000      -0.2184300      -1.1740700
 C       -1.7418400       1.0104700      -0.3545200
 Br       1.1868200       1.6307700       1.5642000
 C       -0.4929400       1.7712200      -0.8420600
 C        0.8700200       1.2254600      -0.3792500
 C        0.8534900      -0.2056500      -0.5589700
 C        0.4416500      -1.3337500      -0.7292400
 C       -1.9812900      -1.6286300      -0.6035800
 F       -0.6641500      -2.6014100      -2.3265800
 F       -0.4957500      -3.4560100      -0.3221000
 H       -3.3208100      -0.1258600      -1.2737400
 H       -0.4635100       1.7680300      -1.9455300
 H       -2.5605400       1.7453600      -0.3628300
 H       -1.6116900       0.7308700       0.7047000
 H       -0.5481400       2.8260300      -0.5339700
 H       -2.0233500      -1.6154500       0.4965200
 H        1.7011000       1.7293300      -0.8862100
 H       -1.8381400      -0.1693500      -2.2042500
 H       -2.7595700      -2.3243500      -0.9561600

