%chk=gs_17_reactant_1.chk
%mem=2GB
%nprocshared=2
#P AM1 Freq NoSymm

dipolar_000172 AM1 SPE on relaxed reactant_1 (n=17)

0 1
 C        3.1588600       0.2587300       1.1864300
 N        2.7171800      -1.0720200       0.7873900
 C        0.4676000      -0.4339200       0.0953300
 O        0.5090900       0.8565900       0.3830600
 C       -0.7614500       1.4653500       0.0246800
 N       -0.6973900      -0.7518700      -0.4175900
 C       -1.5073400       0.3710900      -0.4913400
 C       -2.8163800       0.3873900      -0.9870900
 N       -3.9095200       0.4260600      -1.3952900
 C        1.5351600      -1.4553500       0.2883500
 O        1.2540500      -2.6148000      -0.0336500
 O       -0.9426400       2.6464400       0.2051300
 H        3.1183800       0.9677800       0.3481100
 H        3.3824300      -1.8365000       0.8834600
 H        4.1993900       0.1739300       1.5205300
 H       -0.9320500      -1.7042500      -0.7064800
 H        2.5570600       0.6549700       2.0161800

