%chk=gs_18_reactant_2.chk
%mem=2GB
%nprocshared=2
#P AM1 Freq NoSymm

dipolar_000173 AM1 SPE on relaxed reactant_2 (n=17)

0 1
 C       -3.3602400       0.3473200      -0.2351700
 N        0.8512000      -0.4645700      -0.5347700
 C       -0.4330600      -0.2205800      -0.4232900
 O       -0.6727300       0.5114600       0.6522000
 C       -1.4118900      -0.7441000      -1.4176000
 N       -2.7102400      -0.4521500      -1.2668200
 C        1.5404100       0.1257300       0.5132500
 C        2.9262600       0.0635000       0.7001200
 N        4.0796600       0.0260300       0.8774900
 C        0.5831000       0.7849300       1.3312100
 O        0.5960800       1.4422800       2.3450300
 O       -0.9508800      -1.4285600      -2.3373600
 H       -3.2251300      -0.0907900       0.7634900
 H       -4.4321000       0.3710600      -0.4631500
 H       -2.9827800       1.3791300      -0.2243500
 H        1.2447400      -1.0169900      -1.2996900
 H       -3.3011400      -0.8530500      -1.9922300

