%chk=gs_199_reactant_1.chk
%mem=2GB
%nprocshared=2
#P AM1 Freq NoSymm

dipolar_002814 AM1 SPE on relaxed reactant_1 (n=44)

0 1
 C       -0.3277600       0.1530300      -0.2217200
 C        1.2756300      -1.4535500      -1.1468400
 C        0.6629100      -0.8601000       0.1361800
 O        0.3365700      -1.7786500      -2.0327000
 C        0.9297400      -3.1279900       1.2476900
 O        2.4603800      -1.6425000      -1.3180900
 C        0.7775900      -2.3955500      -3.2531700
 C       -1.2069400      -2.0159400       1.4453000
 C        0.1038900      -2.0317900       0.9549500
 C       -0.8297300       1.2348900      -0.4348800
 C       -0.8466100       2.7141900      -0.4618500
 C        1.5055000       2.5444400       0.6460600
 C        0.6323600       3.1548500      -0.4666800
 O       -1.5517300       3.1051800       0.7033600
 O       -1.4322600       3.2567800      -1.6204900
 C       -2.7915000       2.9017400      -1.8316600
 C        2.2698000       1.2256100       0.3376500
 C        1.7508100      -0.0910900       0.9509500
 C       -1.5689200       4.4992500       0.9889300
 C        0.4501500      -4.1879500       2.0203500
 C       -1.6857500      -3.0762600       2.2208700
 C       -0.8595300      -4.1652100       2.5110300
 H        1.2919200      -3.3428400      -3.0365500
 H        1.1035300      -5.0358200       2.2390600
 H       -2.7109200      -3.0490600       2.5977700
 H       -0.1283900      -2.5799200      -3.8414100
 H        1.4565400      -1.7234700      -3.7969500
 H        1.9529400      -3.1574100       0.8675500
 H       -1.8572200      -1.1682800       1.2207300
 H       -2.9163000       1.8042500      -1.8531300
 H        1.3280200       0.1032200       1.9484000
 H       -1.2344700      -4.9944300       3.1154600
 H       -3.4491800       3.3158300      -1.0504000
 H       -2.3741800       4.6594100       1.7194400
 H        0.8981600       2.4240100       1.5587900
 H        2.5911900      -0.7863700       1.0879500
 H       -1.7825400       5.0960900       0.0882200
 H       -3.0831300       3.3154000      -2.8064300
 H        1.0358200       2.8975900      -1.4575600
 H        2.2615500       3.3037800       0.8968100
 H        3.2925600       1.3483800       0.7263500
 H        2.3870800       1.1082000      -0.7525500
 H        0.6443700       4.2530500      -0.4011100
 H       -0.6177100       4.8393200       1.4313900

