%chk=gs_102_reactant_1.chk
%mem=2GB
%nprocshared=2
#P AM1 Freq NoSymm

dipolar_001353 AM1 SPE on relaxed reactant_1 (n=18)

0 1
 C        2.6817500       0.0723900       0.8551200
 C        1.4584500      -0.3896000       1.5976100
 O        1.4938900      -0.6508900       2.7988500
 C        0.1831900      -0.5257800       0.8847500
 C       -1.0953400      -1.0625200       1.5857400
 Br       0.5436500       0.7339800      -1.7519600
 C       -2.0087600       0.1507400       1.8593900
 O       -1.7736800      -1.6558800       0.4612500
 C       -1.7916200      -0.4623200      -0.3285100
 C       -2.4418600       0.5361900       0.6557600
 C       -0.2742100      -0.1458700      -0.3258200
 H        2.5586200       1.1239500       0.5481700
 H        3.5573700      -0.0104900       1.5120700
 H        2.8393200      -0.5178900      -0.0602900
 H       -2.1785600       0.5956000       2.8391000
 H       -2.2602900      -0.6033000      -1.3079100
 H       -3.0614100       1.3841000       0.3671600
 H       -0.9262300      -1.7736000       2.3993900

