%chk=gs_189_reactant_2.chk
%mem=2GB
%nprocshared=2
#P AM1 Freq NoSymm

dipolar_002731 AM1 SPE on relaxed reactant_2 (n=26)

0 1
 C       -0.9845400      -1.3090600      -1.7614500
 C       -0.0955900      -0.1430400      -2.2331300
 C       -0.1968000      -1.0208100       0.4916000
 C        0.7211200      -2.8219600      -0.7828200
 C        0.6125500       1.8573200      -0.6245300
 N        1.6798300      -3.4183300      -1.0495500
 C        0.0593600       0.0692600       0.9478300
 C        0.2690800       1.5219100       0.8812000
 C       -0.9712800       2.2240100       1.2794400
 C       -0.3664300       1.2760200      -1.6594900
 C       -0.5152300      -2.0762200      -0.4754800
 C       -1.5974400      -3.0598000       0.0114800
 N       -1.9549500       2.7724800       1.5508900
 C        1.3714300       1.9805500       1.7505100
 N        2.2596900       2.3381100       2.4024900
 H       -1.2551500      -3.6098100       0.8990100
 H        0.9686000      -0.4057600      -2.1048500
 H       -1.8325500      -3.7766200      -0.7879200
 H        1.6314600       1.4812400      -0.7972500
 H       -2.5052100      -2.4954700       0.2663500
 H        0.6431800       2.9540700      -0.6980900
 H       -0.3282400       1.9773800      -2.5062400
 H       -1.3993800       1.3413200      -1.2778800
 H       -2.0026200      -0.9476700      -1.5496900
 H       -0.2471400      -0.0768000      -3.3207900
 H       -1.0681700      -2.0622400      -2.5598600

