%chk=gs_137_reactant_1.chk
%mem=2GB
%nprocshared=2
#P AM1 Freq NoSymm

dipolar_001785 AM1 SPE on relaxed reactant_1 (n=31)

0 1
 C       -1.9120800       0.3422600       1.0648000
 N        0.4944200      -0.0237800      -0.4360900
 C       -0.6492700       0.0545700      -1.1086000
 O        1.9930200      -0.1287500       1.6674400
 C       -1.8878800       0.0702300      -0.3266800
 C       -3.1288200      -0.1890600      -0.9556600
 N        3.9403600      -0.0888300       0.4984200
 C       -0.7030000       0.0984500      -2.6054900
 C        1.8271300      -0.0851700      -0.6918100
 C        2.4314900      -0.1247900      -2.0591900
 C        2.5801400      -0.0979000       0.5496900
 C        4.7353200      -0.0137400       1.7053300
 C       -3.1061200       0.3379300       1.7812800
 C       -4.3221000      -0.1894000      -0.2320200
 C       -4.3234100       0.0714300       1.1412800
 H        0.3974100      -0.0669200       0.5912600
 H       -0.9936200       0.5895700       1.6027000
 H        4.4648700      -0.8193900       2.4043700
 H       -0.8641600      -0.9023700      -3.0449900
 H       -3.1608400      -0.4111900      -2.0226800
 H       -5.2610400      -0.4008200      -0.7499700
 H       -1.5373400       0.7329400      -2.9369700
 H        1.8785200      -0.8015700      -2.7273400
 H        0.2156000       0.5074900      -3.0375000
 H        2.4770200       0.8629100      -2.5532200
 H        3.4590800      -0.5122300      -2.0130600
 H        4.3988000       0.1016900      -0.3835400
 H        4.6060600       0.9456900       2.2374100
 H        5.7950400      -0.1232600       1.4410500
 H       -3.0871600       0.5580200       2.8515800
 H       -5.2582300       0.0732200       1.7061100

