%chk=gs_178_reactant_2.chk
%mem=2GB
%nprocshared=2
#P AM1 Freq NoSymm

dipolar_002497 AM1 SPE on relaxed reactant_2 (n=37)

0 1
 C       -0.2524900       0.3333900      -0.5096700
 C       -0.2018200      -1.4805800      -2.7832900
 O        2.2475200       0.7325100      -1.8534700
 N       -0.5248700      -0.0699400      -2.9026400
 C       -0.4041900       0.8469200      -1.9279000
 C       -1.7894900      -1.0440100       0.9125800
 O        1.6560100      -1.3421100       1.8526300
 N        3.2513400      -0.5768700      -0.3009700
 C        1.0719500      -0.3026200       1.5033400
 C       -1.5486200       0.1397500       0.1896000
 C       -2.5614000       1.1128700       0.1176500
 O       -0.5526300       2.0601400      -2.1116100
 N        0.5459500       0.5635800       2.3840100
 C        0.9522500       0.0781500       0.0523100
 C        0.4015200       0.2319200       3.7879500
 C       -3.7737500       0.9182100       0.7818600
 C       -3.0057900      -1.2367700       1.5680000
 C        2.2025600       0.1116900      -0.7819900
 C        4.4949800      -0.6710000      -1.0361600
 C       -3.9999200      -0.2543900       1.5092400
 H       -0.6186900       0.3161800      -3.8399600
 H       -0.7237600      -2.0350100      -3.5742300
 H        0.8807200      -1.6654400      -2.8819600
 H       -0.5371700      -1.8737700      -1.8147000
 H       -1.0236500      -1.8206400       0.9496300
 H        3.0944800      -1.1448400       0.5312400
 H       -3.1798400      -2.1621400       2.1217300
 H       -0.4325600      -0.4735900       3.9471800
 H        0.0115000       1.3463000       2.0199000
 H       -2.3841900       2.0286200      -0.4472900
 H       -4.5463900       1.6887600       0.7301500
 H        4.8661000       0.3295600      -1.3039800
 H        0.2037200       1.1487700       4.3570000
 H        1.3233500      -0.2322900       4.1627500
 H        5.2429100      -1.1716000      -0.4091400
 H        4.3742700      -1.2458800      -1.9699000
 H       -4.9512300      -0.4056100       2.0245000

