%chk=gs_145_reactant_1.chk
%mem=2GB
%nprocshared=2
#P AM1 Freq NoSymm

dipolar_001926 AM1 SPE on relaxed reactant_1 (n=16)

0 1
 C       -1.3348100       1.2497500       1.0451500
 N       -0.6324500       0.3684400       0.3224100
 C        0.6722900       0.2438000       0.1329600
 O        0.1927600      -1.6015300      -1.2456000
 C        1.0639400      -0.8607200      -0.7386200
 N        2.3823500      -1.0432200      -0.9685800
 C        3.4666100      -0.2503900      -0.4174200
 C       -2.7321700       1.1711700       1.0902500
 N       -3.9017400       1.1256100       1.1430600
 H       -0.8000000       2.0246300       1.5953900
 H       -1.1576400      -0.3579800      -0.1932300
 H        1.3494800       0.9435600       0.6171000
 H        3.4972100      -0.3018700       0.6826500
 H        2.6110400      -1.8268400      -1.5728400
 H        3.3934900       0.8077600      -0.7141300
 H        4.4144200      -0.6456300      -0.8024900

