%chk=gs_183_reactant_2.chk
%mem=2GB
%nprocshared=2
#P AM1 Freq NoSymm

dipolar_002635 AM1 SPE on relaxed reactant_2 (n=36)

0 1
 C        0.9653300      -0.7078500      -0.3227000
 C       -0.7982800       0.8633200       0.3990100
 C       -0.1134200       2.0887800       0.4498200
 C       -0.5816400       3.1322600       1.2507800
 C       -1.7455300       2.9687300       2.0090600
 C       -2.4446900       1.7581200       1.9516200
 C       -1.9786000       0.7161000       1.1473600
 C       -0.3047900      -0.2556000      -0.4512600
 C       -2.1520100       0.0618100      -2.1083400
 C       -3.0535800      -0.4227200      -3.0573400
 C       -3.0760800      -1.7840100      -3.3764500
 C       -1.2803300      -2.1710000      -1.7930200
 C       -1.2422100      -0.8008800      -1.4658800
 C        1.9882600      -0.3849000       0.6835900
 F        1.4322400      -1.5911700      -1.2464600
 C        1.6545700      -0.1189100       2.0256000
 C        2.6517600       0.1695900       2.9559700
 C        3.9967200       0.1919600       2.5684900
 C        4.3391400      -0.0908700       1.2428300
 C        3.3451200      -0.3836400       0.3079800
 C       -2.1876100      -2.6547900      -2.7365500
 H        0.7937900       2.2189100      -0.1435200
 H       -0.0373800       4.0792900       1.2794700
 H       -2.1112300       3.7846400       2.6369500
 H       -3.3576200       1.6245700       2.5369900
 H       -2.5262100      -0.2280000       1.1043200
 H       -2.1452900       1.1257000      -1.8641700
 H       -3.7437000       0.2673700      -3.5487600
 H       -3.7851700      -2.1655100      -4.1148900
 H       -0.6020100      -2.8642300      -1.2950600
 H        3.6171100      -0.6060900      -0.7249500
 H        0.6124400      -0.1515700       2.3426900
 H        2.3777700       0.3697600       3.9943800
 H        4.7750600       0.4198200       3.3004000
 H        5.3868300      -0.0838500       0.9333500
 H       -2.2050700      -3.7224700      -2.9686800

