%chk=gs_128_reactant_1.chk
%mem=2GB
%nprocshared=2
#P AM1 Freq NoSymm

dipolar_001681 AM1 SPE on relaxed reactant_1 (n=28)

0 1
 C       -1.4256800      -1.1587000       0.9791800
 O       -1.6276600       1.7178800      -0.0397200
 C       -1.5730000      -0.6129600      -0.4545900
 O       -0.9967800       1.0794500      -2.1144200
 C       -1.1134400       3.0424500      -0.1055300
 C        1.3649000       0.1653100       0.4555900
 C        2.0249400      -0.7453200       1.3867600
 C        0.4928900       0.6468000      -0.2364800
 C       -0.0346200       0.5110400      -2.9862600
 C       -0.9020500       0.7463400      -0.7437900
 F        2.7912100      -1.6704000       0.6586900
 C       -0.2105800      -2.0744600       1.3007400
 C        0.9308500      -1.4921400       2.1583700
 H       -1.4641100      -0.3165500       1.6900400
 H        0.5253500      -0.8025000       2.9166300
 H       -2.3353100      -1.7464300       1.1756000
 H       -1.7801000       3.6714900       0.4993200
 H       -2.6374400      -0.4587400      -0.6922300
 H       -1.0966900       3.4180700      -1.1404200
 H        1.4418200      -2.3011700       2.7053600
 H        2.7132000      -0.2340900       2.0770500
 H        0.2136500      -2.4838700       0.3680400
 H       -1.1792900      -1.3428400      -1.1785200
 H        0.9861200       0.8564900      -2.7457000
 H       -0.0479600      -0.5923800      -2.9602600
 H       -0.2924300       0.8423000      -4.0016300
 H       -0.0922700       3.0958200       0.3107300
 H       -0.5945600      -2.9454700       1.8532900

