%chk=gs_147_reactant_2.chk
%mem=2GB
%nprocshared=2
#P AM1 Freq NoSymm

dipolar_001930 AM1 SPE on relaxed reactant_2 (n=26)

0 1
 C       -1.0152500       1.2722900      -1.9471400
 N        0.3063200       0.6124500      -1.8564900
 C       -1.3823500      -0.9907200       0.5772000
 C        0.6012700      -0.0281700      -0.6476100
 C       -0.4299800       1.0805400       1.3692000
 C       -0.4227000       0.0269000       0.4386600
 O        2.7502800      -0.8043400      -1.3052500
 C        1.8293900      -0.7103300      -0.4483600
 C        2.0374900      -1.3745100       0.9062900
 C       -2.3245100      -0.9550500       1.6089800
 C       -2.3216600       0.1032100       2.5233200
 C        1.0759100       0.6866500      -2.9171100
 C       -1.3710100       1.1218000       2.4016600
 H       -1.0912200       2.0506200      -1.1794800
 H       -1.1213400       1.7168300      -2.9411200
 H       -1.3839800      -1.8184800      -0.1363400
 H       -1.8068300       0.5329600      -1.7809000
 H       -3.0629300      -1.7555000       1.6997600
 H        0.3151100       1.8746700       1.2765300
 H       -1.3611600       1.9502600       3.1142400
 H        0.6967400       1.2209100      -3.7867300
 H        1.9679100      -0.6470900       1.7297200
 H        1.2763800      -2.1467000       1.0981200
 H        3.0326700      -1.8398500       0.9185500
 H        2.0516900       0.2134100      -2.8826700
 H       -3.0575100       0.1330700       3.3306400

