%chk=gs_167_reactant_1.chk
%mem=2GB
%nprocshared=2
#P AM1 Freq NoSymm

dipolar_002345 AM1 SPE on relaxed reactant_1 (n=28)

0 1
 C       -2.1094800      -0.6265800      -1.1723300
 N       -0.2696800      -2.7358100       0.1343300
 C        0.6032200      -1.7099500       0.1429200
 O        1.8286200      -1.8840400       0.1984500
 C        0.0283600      -0.3255400       0.1260400
 C        1.7329000       1.3200600       0.8934100
 C        2.8407600       2.1070000       0.3820800
 C        4.1434400       1.3526900       0.3289500
 C       -1.3594000       0.0599300      -0.1974200
 C        0.1854200      -4.1116800       0.1762300
 C       -1.9458500       1.1637200       0.4533700
 N        0.8776600       0.5828600       0.4807700
 C       -3.2472300       1.5589700       0.1481700
 C       -3.9900900       0.8614600      -0.8112400
 C       -3.4145900      -0.2288700      -1.4696400
 O        2.7110800       3.2929500       0.1022300
 H       -1.2653400      -2.5466600       0.1693200
 H       -1.6662500      -1.4600000      -1.7181000
 H       -3.9802000      -0.7708400      -2.2310400
 H       -5.0110700       1.1698900      -1.0469800
 H       -1.3750200       1.7084100       1.2085700
 H        4.7719400       1.7837800      -0.4634800
 H        3.9771300       0.2790200       0.1570000
 H        0.9107100      -4.3069600      -0.6280600
 H        0.6727800      -4.3493000       1.1362900
 H       -3.6872500       2.4138600       0.6668700
 H        4.6644500       1.4717200       1.2940000
 H       -0.6785400      -4.7743600       0.0448800

