%chk=gs_195_reactant_1.chk
%mem=2GB
%nprocshared=2
#P AM1 Freq NoSymm

dipolar_002784 AM1 SPE on relaxed reactant_1 (n=28)

0 1
 C       -3.7397800      -2.1490800       0.1326500
 O       -1.3786000      -1.6650500      -0.9752100
 C       -1.7609200      -0.8825800      -0.1140900
 O       -2.9122700      -1.0597300       0.5563200
 C        1.1935600      -1.8234400       0.2427400
 C        1.2871100      -0.3748800      -0.0522600
 N        0.2810000       0.4653400       0.0256300
 C        2.5702400       0.3076800      -0.3638500
 C        4.8815400       0.0360700      -0.7286300
 C       -1.0613200       0.3439400       0.2552400
 O        2.6602900       1.5146700      -0.5265500
 C       -1.6704100       1.6248800       0.5983000
 O       -0.9432000       2.6296900       0.6816800
 O        3.5959600      -0.5346100      -0.4395200
 C       -3.1538500       1.7469700       0.8246900
 H       -4.0050000      -2.0467200      -0.9299300
 H       -3.2259300      -3.1090300       0.2871500
 H       -4.6423600      -2.1013400       0.7532000
 H        0.5051600      -1.9877000       1.0874800
 H        2.1841800      -2.2180500       0.4941400
 H        0.7857000      -2.3885600      -0.6106300
 H        0.5539500       1.4651400      -0.0133400
 H        5.1714100       0.7423400       0.0625500
 H        4.8586000       0.5573600      -1.6962900
 H        5.5825100      -0.8052900      -0.7642200
 H       -3.7262200       1.3089100      -0.0054500
 H       -3.4020500       2.8106100       0.9351000
 H       -3.4462200       1.2053300       1.7368700

