%chk=gs_176_reactant_1.chk
%mem=2GB
%nprocshared=2
#P AM1 Freq NoSymm

dipolar_002468 AM1 SPE on relaxed reactant_1 (n=36)

0 1
 C        2.9637300      -0.7436300       0.8746900
 O        3.9455000      -1.4918800       0.8924300
 C        1.7406800      -1.0314300       0.1830600
 O        2.9634300       0.4493400       1.5345900
 C        1.5764200      -2.2257700      -0.6793400
 C       -1.3601400      -2.1422800       0.2392800
 O        0.8316600      -0.0510800       0.2575400
 C       -0.3874200       0.1127700      -0.1791800
 C       -1.2352800      -1.0120500      -0.5929400
 C       -2.2129400      -3.1884400      -0.1157200
 C       -2.9437200      -3.1277600      -1.3057800
 C       -2.8278300      -2.0073200      -2.1377400
 C       -1.9883700      -0.9531700      -1.7824300
 C       -2.2202900       1.8179100      -0.2329000
 C       -0.8498000       1.4927100      -0.1156400
 C        0.0765000       2.5440500       0.0873800
 C       -1.7165700       4.1739900       0.0384300
 C       -0.3563600       3.8642600       0.1667100
 C       -2.6426400       3.1440900      -0.1598300
 C        4.1701600       0.7893500       2.2155800
 H        5.0155400       0.8655900       1.5143500
 H        4.4142000       0.0430400       2.9870200
 H        2.5643400      -2.6824700      -0.8230700
 H        0.9025700      -2.9958300      -0.2625900
 H        1.1641500      -1.9465900      -1.6638400
 H       -0.8046000      -2.1866400       1.1778300
 H       -2.3067700      -4.0550000       0.5425600
 H       -3.6047000      -3.9513300      -1.5852500
 H       -3.3932300      -1.9576400      -3.0710400
 H       -1.8949900      -0.0841000      -2.4358400
 H       -2.9590600       1.0271200      -0.3632100
 H       -3.7067100       3.3745200      -0.2496600
 H       -2.0518600       5.2120400       0.0941400
 H        0.3737200       4.6621400       0.3215600
 H        1.1373700       2.3100200       0.1806900
 H        3.9899400       1.7639700       2.6862300

