%chk=gs_118_reactant_2.chk
%mem=2GB
%nprocshared=2
#P AM1 Freq NoSymm

dipolar_001520 AM1 SPE on relaxed reactant_2 (n=27)

0 1
 C        0.7987300       0.1178100      -0.1490600
 C        1.0665100      -0.7575700       0.9416300
 C       -0.5011100       0.2345900      -0.7835500
 C       -2.8253600      -0.3625200      -0.7122200
 C       -0.6253500       0.3752500      -2.2663300
 C       -4.1367100      -0.4360400      -0.0066800
 C        1.9115300       0.8574600      -0.6413100
 C       -1.7500200       0.2037400       1.3454600
 N       -1.6731700      -0.0372500      -0.1100500
 C        2.3329900      -0.8455700       1.5195200
 C        3.4036200      -0.0903200       1.0280300
 C        3.1755500       0.7549500      -0.0675100
 H        0.2769700      -1.4074600       1.3206100
 H       -0.8593100      -0.5877300      -2.7692400
 H       -1.9401900      -0.7318900       1.8869700
 H       -2.5765900       0.8978000       1.5418600
 H       -2.7811300      -0.5575300      -1.7802000
 H       -1.4467100       1.0653700      -2.5415200
 H        0.3055500       0.7446300      -2.7130100
 H        1.7681000       1.5438700      -1.4782800
 H       -0.8233300       0.6572200       1.7005700
 H       -4.4829400       0.5435400       0.3786100
 H        2.4889300      -1.5347300       2.3544500
 H        4.3957300      -0.1663400       1.4786400
 H        3.9955700       1.3533100      -0.4745800
 H       -4.1342300      -1.1251000       0.8575000
 H       -4.9007800      -0.7942000      -0.7111600

