%chk=gs_191_reactant_2.chk
%mem=2GB
%nprocshared=2
#P AM1 Freq NoSymm

dipolar_002762 AM1 SPE on relaxed reactant_2 (n=31)

0 1
 C       -0.2376400      -0.3088200      -0.3119000
 O       -0.5972900       2.0689400      -0.5311000
 C       -1.0137600       0.7841700      -0.5689900
 C        2.0564500       0.7093400      -0.1007500
 C       -1.5197000       3.0966000      -0.8857500
 C        1.1688400      -0.3800500       0.0735300
 C        1.6963700      -1.5620800       0.6427300
 C        3.3961300       0.6149800       0.2745600
 C       -1.2188800      -1.4817000      -0.2432800
 C       -2.0325500      -1.3140300       1.0785600
 C       -2.2710100      -1.0539100      -1.2830300
 C       -2.8825900      -0.0401800       0.7958100
 C       -2.4636200       0.3416200      -0.6642800
 C        3.0374800      -1.6497200       1.0209400
 C        3.8989400      -0.5633100       0.8396000
 H       -1.8820900       2.9704400      -1.9184500
 H       -1.8759600      -1.0193100      -2.3088800
 H       -3.1507800       1.0295700      -1.1688900
 H        1.6846800       1.6338600      -0.5404800
 H       -0.9688900       4.0430700      -0.8105100
 H       -2.3776000       3.1232500      -0.1957300
 H        4.0571300       1.4725000       0.1229500
 H       -2.6820100       0.7799000       1.5000600
 H        1.0447800      -2.4232000       0.7987500
 H        4.9488300      -0.6329800       1.1337300
 H        3.4119000      -2.5771700       1.4621200
 H       -3.1870400      -1.6646200      -1.2548300
 H       -2.6753500      -2.1904500       1.2538200
 H       -1.3692500      -1.2039300       1.9484200
 H       -3.9608700      -0.2572200       0.8304300
 H       -0.7743600      -2.4753100      -0.3788700

