%chk=gs_125_reactant_1.chk
%mem=2GB
%nprocshared=2
#P AM1 Freq NoSymm

dipolar_001576 AM1 SPE on relaxed reactant_1 (n=20)

0 1
 C       -2.0034500      -1.0778200      -0.6249300
 C       -1.2911900      -0.6423600       0.6953200
 C        0.0504900      -0.0718500       0.2723700
 C        0.8425100      -1.0598900      -0.1810100
 C        0.0049000      -2.3312000      -0.0318200
 C       -0.8183500      -2.0096300       1.2319300
 C       -1.1044400      -2.2440000      -1.1303200
 C        2.1563400      -1.0120200      -0.8753500
 Br       0.3640600       1.7959900       0.1395200
 H       -2.0719000      -0.2442400      -1.3386100
 H       -3.0262500      -1.4218700      -0.4090600
 H       -1.8918400      -0.0106100       1.3607600
 H       -0.2018400      -1.9245500       2.1387600
 H        2.5569800       0.0109700      -0.9212600
 H        2.8954300      -1.6585900      -0.3723000
 H        0.5816500      -3.2658200      -0.0391000
 H        2.0588800      -1.3912300      -1.9082000
 H       -1.6456800      -2.7157000       1.4053600
 H       -1.6649800      -3.1898000      -1.1801400
 H       -0.6747700      -2.0564900      -2.1251100

