%chk=gs_12_reactant_2.chk
%mem=2GB
%nprocshared=2
#P AM1 Freq NoSymm

dipolar_000097 AM1 SPE on relaxed reactant_2 (n=11)

0 1
 C       -0.6459100      -0.0320600       0.0086900
 C       -1.8543700      -0.8641200      -0.0531800
 C       -3.1450300      -0.1240000       0.0693100
 O       -1.7206300      -2.0633500      -0.1958300
 N        0.3486500       0.5723500       0.0554800
 N        1.3323800       1.3674500       0.1248000
 C        2.5552400       0.8567800       0.0348200
 N        3.6801300       0.5418400      -0.0294800
 H       -3.2174300       0.6266200      -0.7352000
 H       -3.1686800       0.4200900       1.0279500
 H       -3.9808600      -0.8330600       0.0093800

