%chk=gs_177_reactant_2.chk
%mem=2GB
%nprocshared=2
#P AM1 Freq NoSymm

dipolar_002495 AM1 SPE on relaxed reactant_2 (n=13)

0 1
 C       -1.4311900       0.2741100       0.4182400
 C       -2.8424300      -0.1002900       0.6679600
 C        0.6727000      -0.6770800      -0.3239900
 N        1.5593800      -2.9799200      -1.0604000
 O       -0.6303200      -0.6438000       0.0078600
 C        1.5120700       0.4489800      -0.2834500
 C        1.1441100      -1.9413800      -0.7248800
 N        2.2513200       1.3535700      -0.2676300
 C       -0.9928800       1.6124300       0.6275900
 N       -0.7380400       2.7298300       0.8336700
 H       -2.9854300      -1.1675500       0.4564600
 H       -3.1106500       0.1166000       1.7156700
 H       -3.5085000       0.5025300       0.0273900

