%chk=gs_125_reactant_2.chk
%mem=2GB
%nprocshared=2
#P AM1 Freq NoSymm

dipolar_001576 AM1 SPE on relaxed reactant_2 (n=27)

0 1
 C       -4.2829600       1.0685600       0.0955400
 N       -3.3469400       0.0197800      -0.2500500
 C       -2.0405900       0.1031200       0.1175600
 O       -1.6546900       1.0826600       0.7862700
 C       -1.1727000      -1.0061100      -0.3337300
 C       -1.7984800      -2.2639000      -0.8682000
 N        0.1726200      -0.8904800      -0.3260400
 C        0.9271600      -1.9940800      -0.9689500
 C        0.8802500       0.1366800       0.2190900
 C        2.2943100       0.3595600       0.1531000
 O        2.5820200       1.5123400       0.8372300
 O        3.2016400      -0.2816400      -0.3845800
 C        3.9534000       1.8966100       0.8806700
 H       -4.3006000       1.2381500       1.1831000
 H       -5.2863500       0.7683800      -0.2312800
 H       -4.0264300       2.0272400      -0.3869900
 H       -3.6499500      -0.6966000      -0.8973100
 H       -2.8091900      -2.3897200      -0.4616700
 H       -1.2356400      -3.1603900      -0.5769200
 H       -1.8765200      -2.2695600      -1.9709100
 H        0.5170200      -2.1838000      -1.9666800
 H        0.8317600      -2.9000300      -0.3572400
 H        1.9758900      -1.7074700      -1.0409200
 H        0.2910800       0.8764500       0.7430800
 H        4.3502600       2.0771400      -0.1305500
 H        4.5692400       1.1256800       1.3696900
 H        3.9915600       2.8253100       1.4640800

