%chk=gs_170_reactant_2.chk
%mem=2GB
%nprocshared=2
#P AM1 Freq NoSymm

dipolar_002390 AM1 SPE on relaxed reactant_2 (n=20)

0 1
 C       -2.4678400      -1.1229200       0.2575200
 C       -1.9742200       0.2991900       0.6817500
 F        1.7279800      -2.0528100       0.0503800
 F        2.2547400      -0.0151600      -0.4698400
 F        2.4137200      -0.6888400       1.5812300
 C       -0.5906400       0.4410500       0.0745500
 C        0.2499500      -0.3703700       0.7428100
 C        1.6539600      -0.7643200       0.4654400
 C       -0.5890100      -1.0734800       1.8072800
 C       -1.5145200      -2.0703700       1.0391600
 C       -1.5895200       0.0473600       2.1546000
 Br      -0.3041200       1.4464800      -1.4926800
 H       -2.4196100      -1.2607400      -0.8318500
 H       -1.1146400       0.9177100       2.6295600
 H       -2.6687000       1.1174700       0.4606700
 H       -0.0123200      -1.5150100       2.6289100
 H       -0.9340400      -2.7355400       0.3858500
 H       -2.0670700      -2.6942200       1.7567800
 H       -3.5142000      -1.2545600       0.5684200
 H       -2.4358800      -0.3019800       2.7644300

