%chk=gs_135_reactant_2.chk
%mem=2GB
%nprocshared=2
#P AM1 Freq NoSymm

dipolar_001779 AM1 SPE on relaxed reactant_2 (n=37)

0 1
 C       -1.2652200       0.9689100       0.8065700
 N        0.3919800      -0.1903100      -0.5389600
 C        1.5405400       0.4395100      -0.1177200
 O       -0.9816500       2.1278300       0.5777400
 C       -0.8461900      -0.1587600      -0.0852900
 C        2.6397500       0.4328900      -1.0536800
 O        2.3141200      -0.1500500      -2.2330600
 O        3.7646000       0.8949200      -0.8537100
 C        3.3516000      -0.2586900      -3.2122900
 N        2.8056400       1.4758400       1.6472400
 C       -1.8203200      -1.1273200      -0.5840300
 C       -1.4017700      -2.3925100      -1.0492400
 O        0.7958600       0.5392200       2.1292900
 O       -2.0745700       0.5681000       1.7809200
 C       -2.3254000      -3.2963200      -1.5719500
 C        1.6771200       0.8253500       1.2908500
 C       -2.5610200       1.5885000       2.6660100
 C       -3.1944700      -0.8065500      -0.6372700
 C        3.1049100       1.7527700       3.0355100
 C       -4.1112600      -1.7170300      -1.1569600
 C       -3.6823700      -2.9632100      -1.6286300
 H       -3.1382200       2.3393400       2.1078700
 H       -3.5439300       0.1656900      -0.2879300
 H       -1.7170400       2.0745500       3.1758600
 H        0.5474900      -0.7941300      -1.3539500
 H        2.8951700      -0.7444200      -4.0828000
 H        3.7277600       0.7366700      -3.4900000
 H        4.1845100      -0.8692700      -2.8333800
 H       -0.3523100      -2.6851600      -0.9731500
 H       -1.9846100      -4.2733400      -1.9213600
 H        3.5352100       1.5419000       0.9379600
 H       -4.4057400      -3.6756200      -2.0313300
 H       -3.2026100       1.0768800       3.3921100
 H       -5.1694900      -1.4502700      -1.1993100
 H        2.2566400       2.2562800       3.5223100
 H        3.3236300       0.8351200       3.6092800
 H        3.9811000       2.4116300       3.0860800

