%chk=gs_16_reactant_1.chk
%mem=2GB
%nprocshared=2
#P AM1 Freq NoSymm

dipolar_000160 AM1 SPE on relaxed reactant_1 (n=23)

0 1
 C        3.7193000       0.7367600      -0.3474900
 O        2.3141400       0.9528400      -0.1782500
 C        1.5773800      -0.1197600       0.1726500
 O        2.0647800      -1.2232800       0.3482800
 C        0.1613600       0.2311800       0.3069300
 C       -0.4251600       1.6381200       0.2067000
 Cl      -0.9328000      -2.3245000       0.2148600
 C       -1.7226800       1.4664200       1.0224700
 C       -2.1714300       0.2145300       0.2410000
 C       -0.9043800      -0.6052700       0.3254700
 C       -0.9990000       1.7642900      -1.2396500
 C       -2.1976000       0.7736700      -1.2217800
 H        4.1441800       1.7075900      -0.6285000
 H        3.9054000      -0.0017300      -1.1412700
 H        4.1730300       0.3816500       0.5895600
 H       -2.4196900       2.3104900       0.9129600
 H       -3.0842600      -0.3032200       0.5565900
 H       -2.1077600      -0.0330600      -1.9628100
 H       -1.5396600       1.2650800       2.0878900
 H       -0.2411700       1.5130500      -1.9947400
 H        0.2572000       2.4420000       0.5034200
 H       -3.1529700       1.2894100      -1.3959300
 H       -1.3342300       2.7955000      -1.4243500

