%chk=gs_19_reactant_2.chk
%mem=2GB
%nprocshared=2
#P AM1 Freq NoSymm

dipolar_000205 AM1 SPE on relaxed reactant_2 (n=8)

0 1
 C       -2.8685600       0.3580000       0.0733800
 O       -1.8899400      -0.6912300       0.2762600
 C       -0.6469600      -0.3530600       0.1232500
 C        0.5256400      -0.0797800      -0.0104100
 Cl       2.1314900       0.2859700      -0.1900800
 H       -3.8475400      -0.1069500       0.2373500
 H       -2.7029800       1.1685700       0.7982200
 H       -2.7944500       0.7437400      -0.9540200

