%chk=gs_116_reactant_2.chk
%mem=2GB
%nprocshared=2
#P AM1 Freq NoSymm

dipolar_001512 AM1 SPE on relaxed reactant_2 (n=22)

0 1
 C        0.9172700       1.1650400      -1.5428600
 C        2.0989100       2.0283400      -1.8571700
 N       -0.0269900       1.8072100      -0.7392500
 C        0.5537600      -0.7404600       0.6629800
 O        0.4099000      -2.0330500       0.9455900
 O        0.7485000       0.0482600      -2.0168300
 C        1.6050400      -2.7606000       1.2774400
 N       -0.9123300       1.1224800      -0.0882800
 C       -2.2124200       1.8105900       0.0879700
 N       -2.8529000      -1.3067800       1.3794500
 C       -1.9161600      -0.7564300       0.9586500
 C       -0.7676400      -0.1070600       0.4404200
 O        1.6168800      -0.1545000       0.6493000
 H        2.6615200       1.6077300      -2.7001000
 H        2.3167600      -2.7199100       0.4409900
 H        1.2848300      -3.7923700       1.4588800
 H       -2.5256400       1.7530700       1.1365700
 H       -2.0691700       2.8474800      -0.2259600
 H       -2.9529900       1.3182200      -0.5573500
 H        2.0689100      -2.3381300       2.1799900
 H        2.7464000       2.0474400      -0.9637800
 H        1.7927700       3.0623600      -2.0679900

