%chk=gs_185_reactant_2.chk
%mem=2GB
%nprocshared=2
#P AM1 Freq NoSymm

dipolar_002647 AM1 SPE on relaxed reactant_2 (n=27)

0 1
 C       -0.5191200       0.3086600       0.9778600
 C        2.4861800       0.3490900      -0.8880200
 C        1.3848900      -0.6836000      -0.5030600
 Cl       2.3708400      -2.1203100       0.1221200
 C        0.5304200      -1.1364500      -1.7002000
 C       -0.5024500      -0.0996700      -2.1922200
 O        2.7915900       0.4819400      -2.0528800
 C       -1.9087000      -0.0821400      -1.5309600
 C       -2.2531900       1.0612100      -0.5594300
 C       -1.9102300       0.7754100       0.9586300
 C       -2.1130300       2.0053800       1.7505800
 C        0.4811300      -0.1884000       0.5118500
 C       -2.8032300      -0.2808000       1.4839500
 N       -2.2671100       2.9897300       2.3414000
 C        3.1068900       1.1274400       0.2311300
 N       -3.5074800      -1.1218900       1.8561600
 H        1.2308900      -1.3763500      -2.5119600
 H        0.0187100      -2.0668700      -1.4142300
 H       -0.6555700      -0.3261700      -3.2578400
 H       -0.0623600       0.9107400      -2.1705700
 H       -2.1218500      -1.0554900      -1.0578200
 H       -1.7093900       1.9786900      -0.8276700
 H       -2.6440300       0.0097200      -2.3439100
 H       -3.3286100       1.2868700      -0.5939400
 H        2.3996900       1.9194700       0.5306500
 H        3.2812400       0.4924900       1.1111800
 H        4.0419000       1.5910800      -0.1079400

