%chk=gs_128_reactant_2.chk
%mem=2GB
%nprocshared=2
#P AM1 Freq NoSymm

dipolar_001681 AM1 SPE on relaxed reactant_2 (n=24)

0 1
 C       -0.1072800      -0.6367400       0.2984900
 C        2.3301800      -0.4545500       0.1903600
 N        1.0684800      -0.0551300       0.0213600
 C       -0.0637800      -1.9146400       0.9103200
 C       -1.3878400       0.0030200      -0.0073700
 C       -2.5881100      -0.5995100       0.4257100
 C        3.3491100       0.4785800      -0.2299100
 C        4.7833300       0.0635800      -0.0429300
 C       -1.4691200       1.2133100      -0.7285600
 N       -0.0143100      -2.9664600       1.4127900
 C       -2.7060300       1.7988300      -0.9927200
 C       -3.8896100       1.1945100      -0.5541100
 C       -3.8213200      -0.0092300       0.1541800
 O        3.0359600       1.5786000      -0.7175700
 H       -2.5523800      -1.5367700       0.9848200
 H        2.5392300      -1.4319000       0.6225200
 H        4.9644500      -0.9223000      -0.5000700
 H        5.0059800      -0.0339200       1.0329100
 H        1.0354300       0.8857400      -0.4009400
 H       -0.5718600       1.7104900      -1.1039300
 H       -2.7439500       2.7356100      -1.5532600
 H       -4.8558900       1.6571700      -0.7660700
 H       -4.7360500      -0.4947000       0.5018800
 H        5.4529100       0.8115500      -0.4871600

