%chk=gs_162_reactant_2.chk
%mem=2GB
%nprocshared=2
#P AM1 Freq NoSymm

dipolar_002260 AM1 SPE on relaxed reactant_2 (n=18)

0 1
 C       -1.3312900      -2.2517800       0.9060700
 C       -0.6149300      -2.1671300      -0.4773800
 N        2.9622500      -1.4817500       0.0435300
 C       -0.2354300       0.1010600      -0.2608700
 C        0.4445000      -1.0690000      -0.3310500
 C       -1.6703700      -1.4120500      -1.3116400
 C       -1.7138900      -0.1959100      -0.3604400
 C       -2.0836700      -0.8938200       0.9920500
 C        1.8254300      -1.2809000      -0.1187000
 Br       0.4678200       1.7942700       0.1327100
 H       -1.7862600      -0.2857900       1.8577900
 H       -1.3216900      -1.1557800      -2.3220900
 H       -0.2373400      -3.1188200      -0.8679900
 H       -2.6327200      -1.9416300      -1.3664200
 H       -2.3488900       0.6537900      -0.6339900
 H       -3.1728300      -1.0361900       1.0364600
 H       -0.6144700      -2.4005600       1.7252800
 H       -2.0319600      -3.0992600       0.9087200

