%chk=gs_134_reactant_2.chk
%mem=2GB
%nprocshared=2
#P AM1 Freq NoSymm

dipolar_001769 AM1 SPE on relaxed reactant_2 (n=28)

0 1
 C        0.4409300      -0.4553200       0.4910900
 C        1.5197400      -0.7572900      -0.4465700
 C        2.7125900       0.2767000      -0.2861400
 C        0.8932600      -0.6805200      -1.8773000
 N        2.5775300      -3.1341000      -0.0702800
 C        3.1401100       0.5837800       1.1126700
 C        2.0981100      -2.0886600      -0.2216600
 O        3.2101700       0.7541400      -1.2763300
 C        0.0315900       0.5681200      -2.1485200
 C       -1.4820000       0.5140500      -1.7991300
 C       -1.9837200       1.3395100      -0.6016100
 C       -1.9424600       0.5883900       0.7906200
 C       -0.6046800      -0.0055400       0.8980200
 C       -2.2315500       1.5481600       1.8748800
 N       -2.4477500       2.3282100       2.7034600
 C       -2.9670100      -0.4787800       0.8164700
 N       -3.7669100      -1.3164600       0.7948300
 H        1.7371500      -0.7127200      -2.5797400
 H        4.1071400       1.1020700       1.1053500
 H        2.3799100       1.2356100       1.5745500
 H        0.4943400       1.4541200      -1.6851100
 H        0.1033300       0.7379400      -3.2331200
 H       -2.0293600       0.9129100      -2.6659400
 H        0.2973400      -1.5920300      -2.0310200
 H       -3.0274100       1.6496400      -0.7537600
 H       -1.8176400      -0.5320900      -1.7023000
 H       -1.3783100       2.2490000      -0.4759600
 H        3.1900000      -0.3336500       1.7187100

