%chk=gs_18_reactant_1.chk
%mem=2GB
%nprocshared=2
#P AM1 Freq NoSymm

dipolar_000173 AM1 SPE on relaxed reactant_1 (n=9)

0 1
 C       -1.1411600      -0.3812700      -0.1239100
 F        2.6244500       0.7107200       0.2100900
 C       -2.1518600       0.6150600       0.3653400
 C        0.2548500       0.0159100      -0.0031400
 C        1.4090500       0.3598000       0.1029100
 O       -1.4418000      -1.4664000      -0.5984500
 H       -2.0311100       1.5640500      -0.1824100
 H       -1.9703400       0.8327800       1.4307100
 H       -3.1670700       0.2207900       0.2255100

