%chk=gs_12_reactant_1.chk
%mem=2GB
%nprocshared=2
#P AM1 Freq NoSymm

dipolar_000097 AM1 SPE on relaxed reactant_1 (n=15)

0 1
 C       -3.6357900       0.6629600      -0.2903100
 O       -2.1987200       0.7546200      -0.2670700
 C       -1.5399200      -0.3457200       0.0825700
 O       -2.0503300      -1.4061800       0.3779900
 C       -0.1037800      -0.1353700       0.0699500
 C        1.1061500      -0.0225000       0.0773000
 C        2.5588700       0.1296400       0.0889800
 C        3.2612400      -0.1627700      -1.2010400
 O        3.1200800       0.4784700       1.1146000
 H       -3.9559200      -0.1049200      -1.0085800
 H       -4.0162800       0.4153400       0.7107300
 H       -3.9914100       1.6511700      -0.6017900
 H        3.0559600      -1.2024900      -1.5052400
 H        4.3412800      -0.0063900      -1.0808100
 H        2.8639300       0.4904500      -1.9952800

