%chk=gs_163_reactant_1.chk
%mem=2GB
%nprocshared=2
#P AM1 Freq NoSymm

dipolar_002277 AM1 SPE on relaxed reactant_1 (n=43)

0 1
 C       -2.4138900       0.3366900       0.8911400
 N       -2.9658000       3.2176200      -0.3013000
 C       -2.0734100       0.7783400      -1.5706300
 O       -3.2404200       1.0159500      -1.9141400
 C       -1.5951300       1.1859500      -0.1514800
 C       -2.1011400      -1.1711500       0.9272800
 O        1.5203500      -1.4415500      -1.7206200
 N       -1.1910500       0.1545400      -2.3589100
 C       -1.5369600      -0.3534600      -3.6726500
 C       -0.2018500       0.8196200       0.0699800
 C        2.0373700      -1.9947800      -2.9441400
 C        0.7355800       0.0901700       0.2953000
 C        1.4418300      -1.1424700       0.6234000
 C        2.4361200      -0.9046500       1.7734900
 C        0.3397900      -2.1993900       1.0226600
 O        3.2122400      -2.3440300      -0.5499800
 O       -1.0167400       3.3017300       0.8532400
 C       -0.8970600      -1.6693100       1.7757600
 C        2.1891900      -1.7025500      -0.6018400
 F        3.4265500      -0.0799400       1.3951000
 F        1.8217700      -0.3328800       2.8239300
 F        2.9952600      -2.0376100       2.2141700
 C       -1.8298800       2.6835900       0.1582900
 C       -3.3216900       4.5973700      -0.0369500
 H       -3.5311900       2.6324600      -0.9181100
 H       -3.4757100       0.4843600       0.6480300
 H       -3.0050100      -1.6434200       1.3417500
 H       -2.2380600       0.7805200       1.8831800
 H       -1.9238400      -1.3846600      -3.6198800
 H       -2.0190200      -1.5600800      -0.1013400
 H        0.0074800      -2.6765400       0.0891500
 H        2.0793000      -3.0906400      -2.8743800
 H       -0.2842800      -0.1011300      -1.9727800
 H       -2.3074300       0.2835900      -4.1252000
 H        1.3361200      -1.6864500      -3.7273700
 H       -0.6437900      -0.3467200      -4.3113200
 H        3.0409000      -1.5951500      -3.1453200
 H       -2.5918200       5.2949500      -0.4791600
 H        0.8430500      -2.9786400       1.6123600
 H       -0.6005000      -0.9035900       2.5082200
 H       -1.2538400      -2.5225400       2.3725300
 H       -3.3624700       4.7939300       1.0456600
 H       -4.3089800       4.7985700      -0.4703500

