%chk=gs_143_reactant_2.chk
%mem=2GB
%nprocshared=2
#P AM1 Freq NoSymm

dipolar_001911 AM1 SPE on relaxed reactant_2 (n=15)

0 1
 C       -1.4461900       0.4083800      -0.5975400
 C       -2.1156100      -0.4143400       0.5198700
 O       -1.0960500      -0.6207200      -1.5275900
 C       -0.4072800      -1.4506400      -0.5874500
 C        0.6440000      -0.4148500      -0.0752400
 C        1.9555500      -0.7030700       0.3539600
 N        3.0363500      -0.9675600       0.6983400
 C       -1.4641100      -1.5802800       0.5262600
 C       -0.0159300       0.7654200      -0.0809900
 N        0.7626200       3.0972200       0.6829900
 C        0.4231500       2.0363800       0.3423400
 H       -2.0072500       1.2285300      -1.0542300
 H       -2.9046900      -0.0464900       1.1738800
 H       -0.0011500      -2.3620000      -1.0351700
 H       -1.5674000      -2.4394100       1.1872400

