%chk=gs_146_reactant_1.chk
%mem=2GB
%nprocshared=2
#P AM1 Freq NoSymm

dipolar_001928 AM1 SPE on relaxed reactant_1 (n=13)

0 1
 C       -1.3516100      -0.5836400      -0.9420900
 N       -2.5970900      -0.1528700      -0.7178600
 C       -0.3108300      -0.0188300      -0.0654800
 O       -0.9948600      -1.3916400      -1.7957000
 C       -3.0204700       0.7975200       0.2947900
 N        0.6608200       0.3011800       0.4887500
 N        1.6060000       0.7652100       1.2006600
 C        2.8361700       0.3324100       0.9559300
 N        3.9635300       0.0370400       0.8453900
 H       -3.7240400       0.3272700       0.9975000
 H       -3.3051800      -0.5535600      -1.3315900
 H       -2.1523600       1.1570200       0.8636900
 H       -3.5097400       1.6647400      -0.1721200

