%chk=gs_193_reactant_2.chk
%mem=2GB
%nprocshared=2
#P AM1 Freq NoSymm

dipolar_002766 AM1 SPE on relaxed reactant_2 (n=21)

0 1
 C        0.0186200      -1.9375700      -0.6119000
 C       -0.7659000      -2.8755200      -1.4133000
 C       -0.1472800      -3.0756400      -2.7316600
 C       -2.1937900      -2.2523300      -1.5456100
 N        0.3159000      -3.2244500      -3.7847000
 C       -2.2431500      -0.7737400      -1.9807100
 C       -2.1980000       0.3300100      -0.8859700
 C       -0.8916300       1.1292200      -0.6954800
 C        0.3111300      -0.8833800      -0.0904300
 C        0.1433600       0.5005800       0.2553300
 Br      -0.4947000       0.6258300       2.1465600
 Br       1.8630000       1.4934800       0.1274300
 H       -1.4669500      -0.5823600      -2.7419500
 H       -0.3918600       1.2461300      -1.6703300
 H       -1.1138700       2.1400000      -0.3239100
 H       -3.2009900      -0.6527600      -2.5084600
 H       -2.9537100       1.0822700      -1.1573000
 H       -2.5299400      -0.0799700       0.0820600
 H       -2.6837600      -2.3774600      -0.5681600
 H       -2.7468900      -2.8730600      -2.2665000
 H       -0.8419100      -3.8676200      -0.9384100

