%chk=gs_148_reactant_1.chk
%mem=2GB
%nprocshared=2
#P AM1 Freq NoSymm

dipolar_001938 AM1 SPE on relaxed reactant_1 (n=28)

0 1
 C        1.4797500       0.0168400      -0.7439300
 O        1.6579000      -0.2229800      -1.9408800
 C        3.3600400      -1.3388000      -0.0005800
 C        0.3120800       0.8771000      -0.3089100
 O        0.3275400       2.1887500      -0.6203800
 N        2.3148500      -0.3623800       0.2383100
 C        1.4936300       2.7643500      -1.2177000
 C       -0.9625600      -1.0632500       0.6228400
 O       -0.1950400      -1.9451800       0.2018700
 C       -0.7813700       0.3797400       0.3212000
 C       -2.7647800       1.4922900      -0.3279200
 O       -1.8020500       1.2299300       0.6989800
 N       -2.0366400      -1.3437500       1.3867600
 C       -2.3751400      -2.6988700       1.7648700
 H        2.9389000      -2.3541000      -0.1012300
 H        4.0669000      -1.3276600       0.8385500
 H        3.8982000      -1.0934500      -0.9256900
 H        2.3841600       2.5870900      -0.5961000
 H        1.2997600       3.8423300      -1.2757800
 H        1.9886300      -0.2365800       1.1921100
 H        1.6575000       2.3604600      -2.2265100
 H       -3.2186200       0.5562000      -0.6933900
 H       -2.3020200       2.0261000      -1.1730800
 H       -2.4317500      -3.3513900       0.8798100
 H       -2.6005000      -0.5644600       1.7098800
 H       -3.5447900       2.1241400       0.1183700
 H       -3.3506100      -2.6967600       2.2663500
 H       -1.6270500      -3.1295600       2.4514000

