%chk=gs_104_reactant_1.chk
%mem=2GB
%nprocshared=2
#P AM1 Freq NoSymm

dipolar_001382 AM1 SPE on relaxed reactant_1 (n=16)

0 1
 C        0.8946100      -1.6877100       0.1217600
 C        0.1020600      -0.7812600       1.0952500
 O        1.0563600       0.2927300       1.2692800
 C        1.5778200      -0.8426500      -0.6558300
 C       -0.2951600       0.7746600      -0.4741100
 F       -0.6977800       1.5820700      -1.4599500
 C       -1.0075400      -0.0642500       0.2792300
 C       -2.4491200      -0.4198900       0.2916500
 C        1.1903600       0.5661200      -0.1376600
 H        0.8319900      -2.7747900       0.0833800
 H       -0.2076400      -1.2169700       2.0521100
 H        2.2282000      -1.0420000      -1.5067600
 H       -2.8863700      -0.3000700       1.2975000
 H       -3.0200400       0.2021600      -0.4133500
 H       -2.5883800      -1.4786500       0.0087000
 H        1.8712500       1.3976000      -0.3510800

