%chk=gs_108_reactant_1.chk
%mem=2GB
%nprocshared=2
#P AM1 Freq NoSymm

dipolar_001415 AM1 SPE on relaxed reactant_1 (n=20)

0 1
 C        0.1470700      -0.1106600      -0.5042200
 O        1.2923300       0.2451100       1.5350200
 C       -2.2831700       0.0517700      -0.3663400
 O        2.4602900      -0.2136100      -0.3688600
 C        1.2871400      -0.0058000       0.3152800
 N       -1.0682100       0.0890700       0.1159200
 C       -3.4412700       0.3126000       0.5335100
 C       -2.4769700      -0.2506700      -1.8104900
 C        3.6570900      -0.1254700       0.3963700
 H       -1.9594400       0.4951300      -2.4409200
 H        0.1833700      -0.3339100      -1.5653100
 H       -0.9669600       0.2985700       1.1151200
 H       -3.1201400       0.5112900       1.5665500
 H       -2.0430100      -1.2343400      -2.0666100
 H        3.6786100      -0.8767200       1.2019600
 H       -4.1294300      -0.5505500       0.5356700
 H       -4.0237700       1.1773500       0.1704600
 H       -3.5425600      -0.2554100      -2.0722500
 H        3.7775600       0.8734200       0.8451900
 H        4.4833700      -0.3145100      -0.3015400

