%chk=gs_172_reactant_2.chk
%mem=2GB
%nprocshared=2
#P AM1 Freq NoSymm

dipolar_002415 AM1 SPE on relaxed reactant_2 (n=24)

0 1
 C        3.2656600       1.0768800       1.7089400
 N        1.9933100       0.9312200       1.0352000
 C        1.6750800      -0.1941800       0.3498400
 O        2.4740600      -1.1461700       0.2504300
 C        0.3554500      -0.2367500      -0.2708700
 C       -0.7177800       0.5869800      -0.1756200
 O       -0.8055000       1.7263900       0.5032900
 C       -2.0302800       2.4728700       0.4559800
 C       -1.8677300      -0.1359000      -0.9282000
 O       -1.1018400      -0.7749400      -1.9579700
 C       -0.1931500      -1.4460400      -1.0533600
 C       -1.2099200      -2.1785400      -0.1478200
 C       -2.2559500      -1.3519100      -0.0561400
 H        3.3971400       0.3245900       2.5048700
 H        3.3164400       2.0751800       2.1612100
 H        4.1075700       0.9673800       1.0063900
 H        1.2968800       1.6644500       1.1186800
 H       -1.8822200       3.3393100       1.1111000
 H       -2.8690100       1.8670000       0.8295200
 H       -2.2352100       2.8144600      -0.5695000
 H       -2.6751800       0.4848900      -1.3280600
 H        0.5462900      -2.0563100      -1.5813900
 H       -1.0348900      -3.1349700       0.3440400
 H       -3.1699700      -1.4343300       0.5302900

