%chk=gs_156_reactant_2.chk
%mem=2GB
%nprocshared=2
#P AM1 Freq NoSymm

dipolar_002138 AM1 SPE on relaxed reactant_2 (n=15)

0 1
 C        1.1200600       1.9028500      -0.5825900
 N        1.6131900       0.5351600      -0.6246700
 C        1.0170800      -0.5219500      -0.0562800
 O        1.3677100      -1.6906400      -0.1850400
 N       -1.1771000      -0.0896800       0.3456000
 N       -0.0355500      -0.2055300       0.8728600
 C       -2.3228700       0.1586100       1.2458400
 O       -1.4275900      -0.1641600      -0.8744000
 H        2.3775200       0.3126500      -1.2577700
 H        0.8777100       2.1980500       0.4476400
 H        1.9066400       2.5699200      -0.9554300
 H        0.2228500       2.0338900      -1.2090700
 H       -2.7717400       1.1122300       0.9401400
 H       -1.9736600       0.1907700       2.2814100
 H       -3.0415300      -0.6550500       1.0857200

