%chk=gs_150_reactant_1.chk
%mem=2GB
%nprocshared=2
#P AM1 Freq NoSymm

dipolar_001992 AM1 SPE on relaxed reactant_1 (n=16)

0 1
 C       -0.5156900      -1.7721600       1.3725800
 Br       0.6867700       1.4306100      -0.9359800
 C        0.6322100      -1.0313100       0.6299700
 C        0.0319800       0.0858600       0.2019200
 C       -1.4411000       0.0039100       0.6654800
 C       -2.1026400      -1.1353400      -0.1477200
 O       -1.2446600      -0.6568100       1.9266300
 C       -1.5195400      -2.2518500       0.2985700
 C        1.9776200      -1.6063000       0.3935600
 H        2.4854300      -1.8372300       1.3452000
 H        2.6130300      -0.9252500      -0.1905800
 H       -1.9871900       0.9480200       0.7645600
 H       -2.8356300      -0.9967700      -0.9416700
 H       -1.6431300      -3.2834300      -0.0293000
 H       -0.2095100      -2.4911800       2.1407700
 H        1.8903300      -2.5597900      -0.1575800

