%chk=gs_165_reactant_2.chk
%mem=2GB
%nprocshared=2
#P AM1 Freq NoSymm

dipolar_002319 AM1 SPE on relaxed reactant_2 (n=18)

0 1
 C        4.2572500       1.1775500       0.2591400
 O        2.8228500       1.0044700       0.2735800
 C        0.9188100      -0.2041000      -0.0923100
 O       -1.5533700       1.8058800       0.7646300
 C       -2.2226100       0.8389400       0.4150600
 N       -0.2361100      -0.3699800      -0.1196700
 C       -1.5628300      -0.3828900      -0.0771600
 C       -3.7262000       0.8157200       0.4553700
 N       -2.8476300      -2.4852500      -0.8436900
 C       -2.2521800      -1.5422400      -0.5005700
 C        2.3669300      -0.1573300      -0.1551500
 O        3.0033800      -1.1046100      -0.5599200
 H        4.4337700       2.1877200       0.6427100
 H        4.6349300       1.0802900      -0.7678800
 H        4.7306900       0.4271800       0.9070400
 H       -4.0788400      -0.0033400       1.1025500
 H       -4.1320400       0.6318800      -0.5523200
 H       -4.0966500       1.7758300       0.8358100

