%chk=gs_132_reactant_1.chk
%mem=2GB
%nprocshared=2
#P AM1 Freq NoSymm

dipolar_001731 AM1 SPE on relaxed reactant_1 (n=37)

0 1
 C       -0.7767300       1.9105100       3.0522700
 N       -0.8201000       0.9907100       1.9364100
 C       -0.2290900       1.2331300       0.7356800
 O        1.7677500      -0.2784800       1.1042000
 C       -0.4717500       0.1977100      -0.3099300
 C       -2.9464100      -0.1324500       0.0179100
 C       -1.6695000      -0.6582000      -0.2738300
 C       -4.0665700      -0.9622300       0.0621400
 C       -3.9418900      -2.3333700      -0.1874600
 C       -2.6828400      -2.8696300      -0.4782000
 C       -1.5592400      -2.0449100      -0.5162700
 C        1.7141900       0.4198600      -1.1969000
 C        2.5201900       0.8164000      -2.4013900
 C        2.3289500       0.1675400       0.0828300
 O        3.6741200       0.4057400       0.0675100
 O        0.4225900       2.2801500       0.4989800
 C        4.3827100       0.1144700       1.2703200
 N        0.3998500       0.1098000      -1.3273100
 C       -0.0690100      -0.2958700      -2.6716000
 H       -0.3282600       2.8536000       2.7198500
 H        3.9760100       0.6872300       2.1176400
 H       -0.1718600       1.5062700       3.8807400
 H       -1.3037700       0.1082400       2.0633000
 H       -1.7909000       2.1112700       3.4316300
 H       -3.0602500       0.9387100       0.1932600
 H       -5.0468000      -0.5328100       0.2823800
 H       -4.8211500      -2.9807100      -0.1536500
 H       -1.1445500      -0.4762300      -2.6519000
 H        2.7631100      -0.0353800      -3.0621100
 H        0.4619500      -1.1957000      -3.0066000
 H        1.9880300       1.5612000      -3.0135600
 H        4.3332900      -0.9587600       1.5102500
 H        5.4245100       0.4060800       1.0878600
 H        3.4662600       1.2656100      -2.0834900
 H        0.1332300       0.5221500      -3.3736600
 H       -0.5770500      -2.4748500      -0.7229600
 H       -2.5732400      -3.9404900      -0.6657400

