%chk=gs_151_reactant_1.chk
%mem=2GB
%nprocshared=2
#P AM1 Freq NoSymm

dipolar_002016 AM1 SPE on relaxed reactant_1 (n=27)

0 1
 C        0.0818500       3.8540900       0.1271600
 N        0.4517300       2.4581900       0.0396500
 C       -0.4904700       1.4820700      -0.0849600
 O       -1.6990800       1.7911600      -0.2560800
 C       -0.0426400       0.1102700      -0.0632300
 C       -0.8800100      -1.0507900       0.1483700
 O       -0.4209100      -2.1362600       0.5766500
 N       -2.2056200      -0.9051700      -0.1429900
 C        1.7152000      -1.8063400      -1.3004600
 O        1.3101200      -0.0323400       0.2833300
 C        2.0925100      -0.9392900      -0.1762000
 C        3.4240400      -1.0067800       0.4583400
 C       -3.1669700      -1.8883000       0.3074600
 H        1.3993500       2.1897900       0.2769700
 H        0.9933400       4.4653300       0.1056400
 H       -0.4725600       4.0893700       1.0531400
 H        3.5497300      -0.2202700       1.2126300
 H        1.0349300      -1.2534400      -1.9721200
 H        1.1409600      -2.6709200      -0.9264900
 H       -2.8823700      -2.8945800      -0.0329500
 H       -2.4976400       0.0653700      -0.2789400
 H        3.5379300      -1.9974400       0.9336300
 H       -3.2635100      -1.9255500       1.4085500
 H        4.2067700      -0.9409000      -0.3149900
 H        2.6130700      -2.1593100      -1.8237500
 H       -4.1514900      -1.6469900      -0.1153300
 H       -0.5533300       4.1458300      -0.7227900

