%chk=gs_17_reactant_2.chk
%mem=2GB
%nprocshared=2
#P AM1 Freq NoSymm

dipolar_000172 AM1 SPE on relaxed reactant_2 (n=9)

0 1
 C        0.2511500       0.0300500      -0.0345700
 C       -2.1918500       0.5587000       0.1645700
 C       -1.0955700      -0.4658000       0.2130700
 O       -1.2916600      -1.6498500       0.4429900
 C        1.3633300       0.4558500      -0.2430300
 F        2.5356700       0.8922700      -0.4599000
 H       -2.2049000       1.0382400      -0.8280100
 H       -3.1601000       0.0831200       0.3695700
 H       -1.9913900       1.3520700       0.9030900

