%chk=gs_196_reactant_2.chk
%mem=2GB
%nprocshared=2
#P AM1 Freq NoSymm

dipolar_002805 AM1 SPE on relaxed reactant_2 (n=32)

0 1
 C       -2.5386300       0.0095000      -0.9783500
 N        0.8559300       0.4182100      -0.0535200
 C       -0.3686000       0.8831500      -0.0960100
 O        0.6766300       2.9958100      -0.3520700
 C       -0.3913800       2.3747100      -0.2337600
 C        1.4279100      -0.8188200       0.0015700
 C        2.8801300      -0.7984400       0.0658800
 C        4.8477700      -2.1002200       0.1559800
 C        0.7021600      -2.0212000      -0.0707900
 C       -1.5695800       0.0432700       0.0406700
 C       -1.7247200       4.4104400      -0.3084100
 N        0.1427200      -3.0448200      -0.1388000
 C       -1.7659600      -0.7145100       1.2094500
 C       -2.9115200      -1.4966100       1.3513200
 N       -1.5908100       2.9707600      -0.1993400
 C       -3.8675100      -1.5343000       0.3310500
 O        3.4175700      -2.0260300       0.0970800
 O        3.5395500       0.2352400       0.0873100
 C       -3.6792800      -0.7813100      -0.8321900
 H       -2.3862800       0.5916100      -1.8892700
 H       -4.4220700      -0.8120600      -1.6322900
 H       -2.4229500       2.4040900      -0.0705200
 H       -1.0189800      -0.6841200       2.0052200
 H        1.5619900       1.1780600      -0.0968400
 H        5.2241400      -1.6087600       1.0650200
 H        5.2971000      -1.6254600      -0.7285100
 H        5.0929800      -3.1684200       0.1757400
 H       -1.2363100       4.7800700      -1.2228300
 H       -3.0584800      -2.0803900       2.2625600
 H       -4.7620800      -2.1510500       0.4434400
 H       -1.2643200       4.9203800       0.5531300
 H       -2.7904800       4.6646700      -0.3440800

