%chk=gs_113_reactant_1.chk
%mem=2GB
%nprocshared=2
#P AM1 Freq NoSymm

dipolar_001462 AM1 SPE on relaxed reactant_1 (n=24)

0 1
 C       -1.9308900       0.0912600       0.7350000
 N        1.8164300      -1.7785300       0.1407300
 C       -0.9310000      -0.5525200      -0.0190500
 O        2.6533000       0.0490300      -0.9115700
 C        0.3621200       0.1243300      -0.2518500
 C       -1.2010400      -1.8160500      -0.5781100
 C       -3.1676600      -0.5205800       0.9330900
 C       -2.4408300      -2.4235000      -0.3725400
 C       -3.4258300      -1.7813100       0.3835000
 C        1.7107200      -0.5450700      -0.3817300
 C        0.4671900       2.5971500      -0.5734400
 N        0.3984300       1.4012100      -0.3410900
 C        3.0693500      -2.5086400       0.0969100
 C        0.6359700       3.6854000       0.2863500
 N        0.7692000       4.6908200       0.8687300
 H       -1.7290300       1.0698500       1.1758600
 H        1.0205200      -2.1960100       0.6113400
 H        3.8481200      -2.0038800       0.6912500
 H        2.9063200      -3.5135200       0.5042500
 H       -3.9324800      -0.0133400       1.5253900
 H       -4.3939900      -2.2611600       0.5432200
 H       -0.4513100      -2.3157800      -1.1923800
 H       -2.6396200      -3.4019000      -0.8155000
 H        3.4349300      -2.5962200      -0.9374900

