%chk=gs_172_reactant_1.chk
%mem=2GB
%nprocshared=2
#P AM1 Freq NoSymm

dipolar_002415 AM1 SPE on relaxed reactant_1 (n=34)

0 1
 C       -0.9005000       0.5521100      -0.1141500
 C       -1.3245900       1.8945600      -0.5764400
 O       -0.4825800       2.6927000      -1.0378900
 N       -2.6224000       2.2296200      -0.4521000
 C       -3.1105700       3.5280900      -0.8712500
 C        2.5131400      -0.4828000      -0.0470700
 C        3.1350000       0.4923900      -0.8627500
 C        4.5198000       0.4881400      -1.0334000
 C        5.3183500      -0.4819000      -0.4171100
 C        3.3287200      -1.4660300       0.5568600
 C        4.7094000      -1.4624800       0.3762800
 N        0.4251200       0.4263900      -0.1481400
 N        1.1485500      -0.5886000       0.2034300
 C       -1.7877700      -0.5208200       0.3547400
 C       -2.3603400      -2.2350200       1.9867700
 C       -3.5139900      -2.5565700       1.2628000
 C       -3.8033900      -1.8656400       0.0827600
 C       -2.9488600      -0.8586500      -0.3699400
 C       -1.5024800      -1.2312400       1.5383900
 H       -3.2706600       1.5697300      -0.0373300
 H       -2.6440000       4.3405000      -0.2907100
 H       -2.8956500       3.7084700      -1.9361700
 H       -4.1958900       3.5632600      -0.7182600
 H        2.5503000       1.2485900      -1.3917300
 H        4.9791500       1.2493300      -1.6691700
 H        6.4009100      -0.4789700      -0.5611700
 H        2.8469300      -2.2259200       1.1756700
 H       -0.6064600      -0.9873400       2.1083500
 H        0.8587400       1.2947100      -0.5175500
 H       -2.1277000      -2.7699500       2.9106600
 H       -4.1822900      -3.3452400       1.6160700
 H       -4.6953800      -2.1161900      -0.4960400
 H       -3.1742200      -0.3414300      -1.3041400
 H        5.3173200      -2.2315700       0.8593400

