%chk=gs_101_reactant_2.chk
%mem=2GB
%nprocshared=2
#P AM1 Freq NoSymm

dipolar_001326 AM1 SPE on relaxed reactant_2 (n=28)

0 1
 C        3.2640400      -1.4312000      -1.5316800
 O        1.6584100       1.9782500      -0.3691000
 C        0.2301100       0.1179000      -0.1025000
 O        2.3764100      -0.6113300      -0.7527300
 C        0.6603200       1.4769700       0.3475300
 C       -0.9695500      -0.3479100       0.2975800
 O       -2.7879200       1.0948200       0.7220100
 O        0.1069700       2.0806800       1.2485800
 C       -1.9115700       0.4113700       1.2157700
 C       -1.7774200       0.1128500       2.6755700
 C       -1.5141800      -1.7077400      -0.1050000
 C       -2.5269500      -1.7089200      -1.2047600
 O       -1.1705200      -2.6856500       0.5299800
 C        1.0767800      -0.7427400      -0.9897500
 C        2.1069200       3.2983800      -0.0203800
 O        0.6121700      -1.5263000      -1.7957600
 H        3.1455500      -1.2097500      -2.6018200
 H        4.2760700      -1.1759800      -1.1983800
 H        2.9278600       3.5265900      -0.7090600
 H       -3.3681600      -1.0550600      -0.9215200
 H        1.2894900       4.0230300      -0.1431000
 H       -2.0778500      -1.2828300      -2.1142300
 H       -2.8829200      -2.7310700      -1.3903200
 H       -2.0435100      -0.9472600       2.8308100
 H       -2.4535700       0.7543200       3.2565600
 H       -0.7359800       0.2398700       3.0019900
 H        3.0568400      -2.4954000      -1.3503400
 H        2.4623700       3.3168400       1.0195300

