%chk=gs_127_reactant_2.chk
%mem=2GB
%nprocshared=2
#P AM1 Freq NoSymm

dipolar_001652 AM1 SPE on relaxed reactant_2 (n=21)

0 1
 C        0.0540200      -0.2508400       0.2701100
 C        1.3189900      -0.8802700      -0.2033600
 F        1.8557800      -1.6688800       0.7478000
 F        1.0939800      -1.6669900      -1.2770600
 F        2.2546600       0.0167000      -0.5531500
 C       -1.1630200      -1.0458500       0.6916500
 C       -2.1540000      -0.9589200      -0.5188800
 C       -2.5641100       0.5395000      -0.5281800
 C       -1.7625400       1.1298300       0.6756200
 C       -1.8130600      -0.0463700       1.6717900
 C       -0.2947800       1.0559000       0.2549300
 C        0.4514900       2.1720800      -0.2034500
 N        1.0158700       3.1271300      -0.5571700
 H       -0.9576700      -2.0613500       1.0487400
 H       -1.6782500      -1.2857300      -1.4530600
 H       -3.0162700      -1.6132700      -0.3270100
 H       -3.6409600       0.6643400      -0.3454700
 H       -2.3174700       1.0504100      -1.4690300
 H       -2.0954800       2.1153400       1.0191800
 H       -2.8390000      -0.3264200       1.9513600
 H       -1.2095200       0.1262600       2.5743200

