%chk=gs_14_reactant_2.chk
%mem=2GB
%nprocshared=2
#P AM1 Freq NoSymm

dipolar_000145 AM1 SPE on relaxed reactant_2 (n=14)

0 1
 C       -1.5863100      -1.9694400       0.0845700
 O       -1.2846600      -0.7149300       0.7133300
 C       -0.0871300      -0.1864000       0.3644400
 O        1.0062300      -0.9348600       0.6604300
 C        1.9261800      -1.2081100      -0.4047000
 C       -0.0287300       1.0321000      -0.1845500
 F        1.1033100       1.6826700      -0.4265000
 F       -1.0885100       1.7505600      -0.5245900
 H       -1.6266400      -1.8504400      -1.0108100
 H       -2.5696400      -2.2802800       0.4596600
 H       -0.8366100      -2.7322400       0.3444800
 H        1.3856800      -1.5117500      -1.3152500
 H        2.5533100      -0.3304700      -0.6241500
 H        2.5652700      -2.0326100      -0.0621400

