%chk=gs_154_reactant_2.chk
%mem=2GB
%nprocshared=2
#P AM1 Freq NoSymm

dipolar_002123 AM1 SPE on relaxed reactant_2 (n=22)

0 1
 C       -3.2417600       0.3923600      -0.1496400
 N        2.4716400      -0.2860600      -0.7364100
 C       -1.9850700       0.7667700       0.3086300
 O        0.6026600       1.4004900       1.1481000
 C       -0.8635200      -0.0456000       0.0250800
 C        0.4557600       0.3320600       0.4739500
 C       -1.0274200      -1.2306300      -0.7243200
 C        1.6698700      -0.5665900       0.2909500
 C        2.3403800       0.9070000      -1.5627900
 C       -2.2926100      -1.5951300      -1.1774100
 C       -3.3982300      -0.7872500      -0.8919600
 O        1.8825600       1.7280200       1.5570600
 O        1.7836600      -1.5069500       1.0765300
 H       -4.1084500       1.0190000       0.0697000
 H       -1.8566400       1.6836000       0.8850000
 H       -4.3891100      -1.0761300      -1.2493900
 H       -0.1682600      -1.8652300      -0.9462100
 H       -2.4177600      -2.5125500      -1.7555100
 H        3.2878200      -0.8846900      -0.8472800
 H        3.1795700       0.9372600      -2.2672300
 H        1.4042000       0.8923900      -2.1404400
 H        2.3714200       1.8128000      -0.9390000

