%chk=gs_194_reactant_2.chk
%mem=2GB
%nprocshared=2
#P AM1 Freq NoSymm

dipolar_002782 AM1 SPE on relaxed reactant_2 (n=39)

0 1
 C        0.0226300       0.4307600       0.3103200
 C       -0.6530800      -0.5239900       0.6176500
 C        0.7823600       1.3456200      -0.5332200
 O        2.7116300       1.1108500       0.9047900
 C        2.2845400       1.1905300      -0.2265900
 C       -1.3219400      -2.7515700       1.5061900
 F       -1.7577100      -2.2759100       2.6863900
 F       -0.0362000      -3.1058700       1.6716400
 F       -2.0198700      -3.8645000       1.2425100
 C       -0.9949400      -2.3117500      -0.9675200
 C        0.3875900      -0.5068000      -2.3552900
 C        0.3805700       0.9953000      -2.0058800
 C       -0.9250400      -1.3106200      -2.1357700
 C        0.3827200       2.8062700      -0.2747300
 C       -3.4145700      -0.3683800       1.0170800
 O       -2.8571100      -1.4170400       0.2290600
 O       -0.6648000       3.1432400       0.2286200
 C       -1.4801200      -1.7123500       0.3762800
 C        1.0429300       5.0501000      -0.6033300
 O        1.3122300       3.6413600      -0.7243200
 O        3.0375000       1.1735000      -1.3155200
 C        4.4601500       1.0868700      -1.1198400
 H        4.7129800       0.1649900      -0.5778000
 H       -0.0127900      -2.7811200      -0.8083200
 H        1.2301200      -1.0066500      -1.8492400
 H       -1.7079500      -3.1136900      -1.2114800
 H        0.6217600      -0.5580600      -3.4293600
 H        1.0638600       1.5463600      -2.6645700
 H        4.8997800       1.0748000      -2.1232300
 H       -0.6284900       1.4041500      -2.1689800
 H        4.8163900       1.9593500      -0.5541900
 H       -1.7842400      -0.6232400      -2.0712300
 H       -1.0955800      -1.9054600      -3.0455800
 H       -4.4746700      -0.3085500       0.7358200
 H       -2.9306000       0.5977400       0.7984800
 H       -3.3409000      -0.5740200       2.0961000
 H        0.1360400       5.3106600      -1.1666500
 H        1.9164000       5.5586600      -1.0257800
 H        0.9145500       5.3204300       0.4540900

