%chk=gs_148_reactant_2.chk
%mem=2GB
%nprocshared=2
#P AM1 Freq NoSymm

dipolar_001938 AM1 SPE on relaxed reactant_2 (n=26)

0 1
 C        4.4264900       1.1036600      -1.3537900
 N        3.6740500       0.1507300      -0.5633900
 C        2.3910500       0.3870400      -0.2108100
 O        1.7949300       1.4231000      -0.5518400
 C        1.7253700      -0.6701200       0.5937400
 C        2.3897200      -1.9602900       0.9865000
 N        0.5162400      -0.4016000       0.9486800
 C       -0.5682100       0.0325000       1.2924700
 C       -1.8357300      -0.0201200       0.5726000
 C       -1.8509000      -0.0184700      -0.8384600
 C       -3.0655600      -0.0230600      -1.5217200
 C       -4.2627900      -0.0562400       0.5887600
 C       -3.0510300      -0.0195600       1.2801300
 C       -4.2719600      -0.0520400      -0.8103400
 H        3.9012000       1.3395600      -2.2924200
 H       -0.9044000       0.0080600      -1.3830700
 H        4.5843600       2.0503800      -0.8108200
 H        4.1438500      -0.6834900      -0.2316200
 H        3.2799500      -1.7760100       1.6125700
 H        5.4049100       0.6708500      -1.5958600
 H        1.6941700      -2.5900900       1.5566000
 H        2.7208000      -2.5257000       0.0994600
 H       -3.0745700      -0.0107000      -2.6141600
 H       -5.2042200      -0.0727900       1.1423800
 H       -3.0319900       0.0018700       2.3717300
 H       -5.2219400      -0.0636000      -1.3497500

