%chk=gs_199_reactant_2.chk
%mem=2GB
%nprocshared=2
#P AM1 Freq NoSymm

dipolar_002814 AM1 SPE on relaxed reactant_2 (n=21)

0 1
 C       -4.5716200       0.0058000      -0.6343100
 O       -3.1540200      -0.2025200      -0.6272300
 C       -2.4472500       0.5777300       0.2041100
 O       -0.7647900      -0.6031000      -0.6552700
 N       -1.0785000       0.3875200       0.2183000
 O       -2.9464800       1.4270800       0.9289200
 N        0.4279600      -1.0042200      -0.8623800
 C        1.6425900       0.5582100       0.7331500
 C        2.9006100       0.9021200       1.2161000
 C        4.0520500       0.2427700       0.7693200
 C        3.9566300      -0.7847800      -0.1814700
 C        2.7160600      -1.1444200      -0.6776400
 C        1.5331300      -0.4832200      -0.2334800
 H       -4.9770100      -0.7078700      -1.3613900
 H       -4.8115600       1.0345300      -0.9407100
 H       -4.9977400      -0.1863000       0.3613300
 H        0.7553400       1.0706000       1.0818300
 H        2.9851500       1.7004000       1.9561500
 H        5.0295100       0.5299100       1.1631700
 H        4.8548200      -1.2983700      -0.5289800
 H        2.6114100      -1.9388100      -1.4178400

