%chk=gs_127_reactant_1.chk
%mem=2GB
%nprocshared=2
#P AM1 Freq NoSymm

dipolar_001652 AM1 SPE on relaxed reactant_1 (n=26)

0 1
 C        4.9409700       1.0709800       0.6979800
 O        2.3320000       1.5660000       0.6918500
 C        2.6939300       0.4357900       0.3376600
 O        3.9996900       0.0746100       0.3030100
 N        1.9063200      -0.5909000      -0.0574600
 N        0.6172000      -0.2099800      -0.0273700
 C       -0.3985000      -0.9757300      -0.3266500
 C       -0.1229300      -2.3921700      -0.6966800
 C       -1.7513400      -0.4049300      -0.2740700
 C       -1.9773500       0.9761100      -0.4555500
 C       -2.8565200      -1.2430000      -0.0263400
 C       -4.1440700      -0.7125600       0.0572100
 C       -4.3546200       0.6586900      -0.1153900
 C       -3.2662600       1.4994700      -0.3742100
 H        4.8835800       1.9544500       0.0435500
 H        4.7730500       1.3865700       1.7393000
 H        5.9315800       0.6077100       0.6073300
 H        0.4534200       0.7652500       0.2689500
 H       -1.1478700       1.6453000      -0.6939200
 H       -1.0164600      -2.8937700      -1.0823700
 H        0.6711400      -2.4245600      -1.4584800
 H        0.2586800      -2.9482500       0.1764800
 H       -3.4237800       2.5693600      -0.5273300
 H       -4.9877600      -1.3757900       0.2602600
 H       -5.3643500       1.0710500      -0.0562200
 H       -2.7068700      -2.3131700       0.1235500

