%chk=gs_185_reactant_1.chk
%mem=2GB
%nprocshared=2
#P AM1 Freq NoSymm

dipolar_002647 AM1 SPE on relaxed reactant_1 (n=29)

0 1
 C       -1.1772200      -1.8649500       0.8284600
 N        0.6754100       0.1907100       0.3859400
 C       -1.5730900      -0.6101900       0.3162800
 O       -1.8115200       1.8850900      -1.4053900
 C       -0.5401400       0.3809800      -0.0385700
 N        3.9480900      -0.1064300      -0.0930700
 C       -0.7543200       1.5696700      -0.8859700
 C        0.2923600       3.4554700      -1.8552800
 O        0.3751600       2.2825600      -1.0370800
 O        2.9636200      -1.9581300       0.8448700
 C       -2.9500400      -0.3427200       0.1833900
 C        1.7665700       0.0428100       0.8531700
 C        2.9527600      -0.7701400       0.5134100
 C        3.8442800       1.2639500      -0.5681100
 C       -2.1272700      -2.8145800       1.1997500
 C       -3.8943300      -1.3026000       0.5532400
 C       -3.4926700      -2.5405000       1.0629300
 H       -0.1156000      -2.1014500       0.9273500
 H       -1.7972700      -3.7795400       1.5917500
 H       -4.2364100      -3.2874300       1.3495600
 H        4.7532900      -0.6672600      -0.3634600
 H       -0.0137500       3.1931700      -2.8785300
 H       -0.4262700       4.1727400      -1.4325500
 H        1.2994600       3.8881900      -1.8619500
 H       -3.2770400       0.6189400      -0.2055500
 H        3.3000700       1.8797300       0.1635200
 H        4.8527800       1.6807600      -0.6812200
 H        3.3207900       1.3303200      -1.5351600
 H       -4.9574900      -1.0747100       0.4446300

