%chk=gs_192_reactant_1.chk
%mem=2GB
%nprocshared=2
#P AM1 Freq NoSymm

dipolar_002765 AM1 SPE on relaxed reactant_1 (n=30)

0 1
 C        2.3446000      -0.0033600       1.1446000
 N        2.5189600      -0.2022100       2.4656500
 C        0.9209200       0.2292800       0.7823700
 O        3.2791800      -0.0181200       0.3355000
 C       -0.9074700       0.3557800      -0.6700300
 C       -1.4919400      -0.9115800      -0.1753100
 C       -3.4425500      -2.3775900      -0.1706900
 C       -1.6257200       1.3528700      -1.3941300
 O       -0.8442300      -1.7318000       0.5113600
 C        1.3848700       0.7246200      -1.5598700
 O       -2.8184900       1.2007100      -1.7672700
 N        0.4767300       0.5020400      -0.4139300
 C       -0.9856500       2.6989800      -1.6843600
 N       -2.7695000      -1.1524900      -0.5351300
 C        3.8332000      -0.4531700       3.0202300
 H        4.5178600       0.3823300       2.8046700
 H        4.2742100      -1.3686500       2.5945000
 H        2.1202400       1.4988100      -1.3194900
 H        1.7151200      -0.1889600       3.0857100
 H        0.1776000       0.1695200       1.5751300
 H       -3.0120200      -3.2586300      -0.6779100
 H       -4.5005100      -2.3006000      -0.4533100
 H       -3.2036700      -0.4391800      -1.1283200
 H        0.7838400       1.0088800      -2.4257500
 H        1.9072000      -0.2147000      -1.7795800
 H       -0.7182700       2.7601400      -2.7520000
 H       -0.0944000       2.9222700      -1.0849200
 H       -1.7450300       3.4725900      -1.4973600
 H       -3.3816000      -2.5598300       0.9142900
 H        3.7437200      -0.5717400       4.1062500

