%chk=gs_154_reactant_1.chk
%mem=2GB
%nprocshared=2
#P AM1 Freq NoSymm

dipolar_002123 AM1 SPE on relaxed reactant_1 (n=27)

0 1
 C        0.4472700      -0.1765600       0.4710900
 C        1.5153700      -0.2085500      -0.5066300
 C        0.9976700       0.4842000      -1.7786100
 Cl       1.8963400      -1.9919700      -0.8788200
 C       -0.4130400       0.0814400      -2.2461800
 C        2.8850900       0.3366500      -0.0272900
 O        3.5831400       0.9516900      -0.8046200
 C       -1.6338400       0.8374400      -1.6502000
 C       -2.1008500       0.2545600       0.8728600
 C       -0.6663200      -0.0557600       0.9284300
 C       -2.3254800       1.6473000       1.3178800
 C        3.2594900       0.0615500       1.3965200
 C       -2.9143500      -0.6477600       1.7114800
 N       -2.4971200       2.7509400       1.6252700
 C       -2.5319600       0.0997000      -0.6412800
 N       -3.5597900      -1.3761000       2.3396900
 H        1.7335200       0.2871200      -2.5704900
 H       -0.5447700      -1.0064500      -2.1260300
 H       -0.4268900       0.2594800      -3.3314100
 H       -2.5429200      -0.9805400      -0.8470800
 H       -1.3171800       1.8080600      -1.2324200
 H       -3.5672200       0.4643200      -0.7053500
 H       -2.2992800       1.0887300      -2.4892200
 H        2.6681900       0.7329600       2.0426700
 H        3.0063500      -0.9699800       1.6809900
 H        1.0325100       1.5675500      -1.5775100
 H        4.3277600       0.2589400       1.5511100

