%chk=gs_200_reactant_1.chk
%mem=2GB
%nprocshared=2
#P AM1 Freq NoSymm

dipolar_002817 AM1 SPE on relaxed reactant_1 (n=21)

0 1
 C        1.3543000      -0.2440300       0.9831500
 N        1.6911100      -0.1100000      -0.3585300
 C       -1.1155200       0.3914700      -0.2275200
 O        0.4937500      -1.0205200       1.3878100
 N       -0.4568600      -0.2922300      -1.2785000
 N        0.8201100      -0.3597000      -1.2846800
 C        1.4218300      -0.7516800      -2.5778500
 C       -3.2290500       0.4713500       0.9836400
 O       -0.6704900       1.4078700       0.3099600
 N       -2.3320800      -0.1194100       0.0118100
 C        2.2172200       0.5743800       1.8946600
 H        2.1095000       0.2282600       2.9305100
 H       -2.6824500       0.7129800       1.9065600
 H       -2.6378200      -0.9088800      -0.5483600
 H        1.8776100       1.6220100       1.8262800
 H       -3.6902400       1.3990000       0.6050200
 H       -4.0248800      -0.2461700       1.2175400
 H        0.6176600      -0.9234800      -3.2979700
 H        3.2699300       0.5444400       1.5805900
 H        2.0758600       0.0668800      -2.9034800
 H        2.0186800      -1.6571400      -2.4134500

