%chk=gs_203_reactant_1.chk
%mem=2GB
%nprocshared=2
#P AM1 Freq NoSymm

dipolar_002861 AM1 SPE on relaxed reactant_1 (n=26)

0 1
 C        1.7134600      -3.6416700      -4.1198000
 O        2.1733600      -2.6653000      -3.1660200
 C        1.2444300      -2.0477100      -2.4556600
 O        0.0521400      -2.2434000      -2.5441500
 C        1.0607000      -0.8160000      -0.3230400
 F        3.1695900      -1.3027100      -1.2625500
 C        0.4700000       1.0860400      -2.4420500
 C       -1.2024000       1.4618500      -0.4077900
 C       -0.0663400       1.9988200      -1.3040900
 C        1.8395700       0.4035500      -2.2606400
 C        1.8502500      -0.9712100      -1.5391300
 Br       0.0867300       1.8470200       2.1777500
 Br      -2.3273600      -0.2250200       1.6631800
 C        0.2208000      -0.3165400       0.3936100
 C       -0.7528300       0.6482100       0.8203900
 H        1.0527900      -3.1664600      -4.8584000
 H        1.1738300      -4.4484100      -3.6044400
 H        2.6141800      -4.0327200      -4.6054900
 H       -0.2886100       0.3339300      -2.7118600
 H       -1.8530800       0.8002500      -1.0011700
 H       -1.8285500       2.2892300      -0.0438500
 H       -0.4819400       2.8975100      -1.7834400
 H        0.7663400       2.3604100      -0.6788000
 H        0.5784100       1.7219800      -3.3330000
 H        2.5154500       1.0462300      -1.6748100
 H        2.3114700       0.2390400      -3.2416500

