%chk=gs_22_reactant_2.chk
%mem=2GB
%nprocshared=2
#P AM1 Freq NoSymm

dipolar_000245 AM1 SPE on relaxed reactant_2 (n=22)

0 1
 C        1.0532200      -0.8439100      -1.0495200
 C       -1.7087500      -2.0263400      -0.3158100
 N       -1.8996500      -0.7487300      -0.0886200
 C       -0.9196800       0.2066800       0.1527100
 C        0.5211000      -0.0201100      -0.0311700
 C       -1.3444600       1.4510100       0.6442100
 C       -3.3000500      -0.2677600      -0.0732900
 C        1.4390500       0.6772100       0.7873300
 C        2.4318000      -0.9659100      -1.2283300
 N       -1.6515200       2.5091600       1.0506100
 C        2.8155600       0.5540100       0.6018700
 C        3.3251700      -0.2740100      -0.4038300
 H        1.0605000       1.3250700       1.5810500
 H        3.4960800       1.1047600       1.2561800
 H       -3.4144900       0.5408200      -0.8054200
 H       -3.5421800       0.1093700       0.9280800
 H       -3.9657400      -1.0990200      -0.3227900
 H        4.4033900      -0.3779700      -0.5443100
 H       -0.7080500      -2.4471600      -0.2714100
 H        2.8103500      -1.6060000      -2.0293300
 H        0.3893800      -1.3775800      -1.7305300
 H       -2.5744700      -2.6530700      -0.5165800

