%chk=gs_201_reactant_2.chk
%mem=2GB
%nprocshared=2
#P AM1 Freq NoSymm

dipolar_002819 AM1 SPE on relaxed reactant_2 (n=26)

0 1
 C        0.4174900       0.0107600       0.3623600
 C       -0.5994100       0.0767500      -2.6433800
 C        0.9249000       0.2586400      -2.7777100
 F        3.1173400      -0.0547100      -1.8992300
 C       -1.3785300       1.0034300      -1.6687900
 O        0.9240500      -2.7746600      -1.7238300
 O        2.7770700      -2.3577000      -2.9308900
 C        1.8164100      -0.5241500      -1.7764800
 C        1.7905500      -2.0241400      -2.1156800
 C        1.2725100      -0.2791600      -0.4460000
 C       -0.8512800       0.4883000       0.8346800
 C       -1.8615200       0.4158200      -0.3257600
 C        2.8059800      -3.7241500      -3.3847500
 Br      -0.6359900       2.3749400       1.4503800
 Br      -1.5119900      -0.5862100       2.3713100
 H       -1.0042200       0.2634300      -3.6489500
 H        1.2536300      -0.0448100      -3.7837100
 H       -0.8313000      -0.9785100      -2.4274000
 H       -2.1081100      -0.6491200      -0.4614600
 H        1.8851300      -3.9584800      -3.9371000
 H        2.9078600      -4.4051800      -2.5283200
 H        1.1994400       1.3172900      -2.6476900
 H       -0.8131400       1.9327000      -1.4903800
 H       -2.7804800       0.9207000       0.0055500
 H       -2.2959000       1.3162000      -2.1891500
 H        3.6785400      -3.8023300      -4.0424900

