%chk=gs_201_reactant_1.chk
%mem=2GB
%nprocshared=2
#P AM1 Freq NoSymm

dipolar_002819 AM1 SPE on relaxed reactant_1 (n=22)

0 1
 C        2.7615900      -0.5078200       0.1389700
 O        2.8032900       0.8103500      -0.0873100
 C        1.5861000      -0.8640600       0.9368200
 O        3.6271800      -1.2998600      -0.1818200
 C       -0.7185600      -1.4949300       0.2155400
 N        0.4927900      -1.2273000       0.5268200
 C       -1.7324200      -0.4547900       0.0627900
 C       -1.4176400       0.9153000       0.1708300
 C       -2.4174600       1.8762600       0.0322300
 C       -3.7400600       1.4909100      -0.2218300
 C       -4.0576800       0.1332800      -0.3383800
 C       -3.0630200      -0.8347600      -0.1979500
 C        3.9686900       1.3092500      -0.7670200
 H        4.0466400       0.8694600      -1.7716000
 H        4.8765300       1.0778500      -0.1916000
 H        3.8308500       2.3940700      -0.8390400
 H       -0.9863500      -2.5451100       0.0605100
 H       -3.3093100      -1.8957900      -0.2850400
 H       -2.1638300       2.9355500       0.1171100
 H       -0.3846600       1.2220200       0.3514500
 H       -4.5195100       2.2481300      -0.3330500
 H       -5.0870100      -0.1730300      -0.5389400

