%chk=gs_28_reactant_1.chk
%mem=2GB
%nprocshared=2
#P AM1 Freq NoSymm

dipolar_000309 AM1 SPE on relaxed reactant_1 (n=15)

0 1
 C       -1.1787600      -1.7665900       0.2147500
 O        1.4179700      -0.7986900       0.2893700
 C        0.5419100       0.1829300       0.0130800
 O        0.8704000       1.3463800      -0.1652600
 C       -0.8345700      -0.3267100      -0.0379000
 C        2.7970100      -0.4211200       0.3704300
 N       -1.7448100       0.5521800      -0.3061500
 C       -2.5641700       1.4332800      -0.4222000
 H       -0.6845900      -2.4243000      -0.5181400
 H       -0.8428600      -2.0786500       1.2167400
 H       -2.2641800      -1.9185400       0.1448600
 H        2.9495900       0.3215600       1.1674000
 H        3.1415400      -0.0019100      -0.5864600
 H        3.3497300      -1.3396800       0.6003300
 H       -2.9679600       1.7778000      -1.3866200

