%chk=gs_27_reactant_2.chk
%mem=2GB
%nprocshared=2
#P AM1 Freq NoSymm

dipolar_000298 AM1 SPE on relaxed reactant_2 (n=26)

0 1
 C        0.3219700       0.5858400      -0.9579000
 O       -0.8122700       2.0991700      -2.4790800
 C        0.8094800       0.1233900       0.0500400
 C       -0.6418400       0.7636600      -2.0551900
 C       -1.9690100      -1.1497600      -0.8654400
 C       -1.6750600      -1.2415800       0.6589600
 C       -1.9928100       0.2413100      -1.5294000
 C       -0.3036800      -1.7695500       1.1168100
 C        0.4798100       0.2040900       2.4408000
 N        0.1792700       0.8746600       3.3365600
 C        0.8128600      -0.6632100       1.2892200
 N        3.1209700      -1.8538200       1.7385300
 C        2.1131200      -1.3139100       1.5515600
 C        0.3163200       2.6240600      -3.1536600
 H        1.2125800       2.6237100      -2.5052600
 H        0.5473800       2.0444500      -4.0665600
 H        0.0823700       3.6603400      -3.4348700
 H       -0.3077300       0.1367200      -2.9054800
 H        0.0954600      -2.4963200       0.3941400
 H       -1.2843200      -1.8148400      -1.4192500
 H       -2.6768400       0.2268700      -2.3921400
 H       -2.9724700      -1.5746700      -1.0173500
 H       -2.4041900      -1.9457100       1.0868800
 H       -1.8870000      -0.2752400       1.1470800
 H       -2.3820100       0.9914600      -0.8214600
 H       -0.3901600      -2.2769900       2.0886300

