%chk=gs_21_reactant_2.chk
%mem=2GB
%nprocshared=2
#P AM1 Freq NoSymm

dipolar_000219 AM1 SPE on relaxed reactant_2 (n=19)

0 1
 C        0.1554900       0.1354600      -0.1875600
 C       -1.2434500      -0.1498100       0.0064200
 C       -2.1924300       0.3438900      -0.9155900
 C       -3.5473200       0.0741900      -0.7330200
 C       -3.9791700      -0.6847300       0.3604300
 C       -1.6843000      -0.9149900       1.1074500
 C       -3.0417400      -1.1763400       1.2770000
 O        1.0858500      -0.3488600       0.6848000
 C        2.2739300       0.0446800       0.3115500
 C        3.4446000      -0.2906500       1.0076000
 N        4.4229800      -0.5637400       1.5792000
 O        2.2260500       0.7760300      -0.7719100
 C        0.8339900       0.8901200      -1.1795200
 O        0.5343700       1.5253000      -2.1651100
 H       -1.8587800       0.9354500      -1.7683700
 H       -4.2731000       0.4606400      -1.4520100
 H       -5.0424200      -0.8926500       0.4986900
 H       -3.3723300      -1.7688700       2.1330200
 H       -0.9586300      -1.2999500       1.8256100

