%chk=gs_21_reactant_1.chk
%mem=2GB
%nprocshared=2
#P AM1 Freq NoSymm

dipolar_000219 AM1 SPE on relaxed reactant_1 (n=11)

0 1
 C       -1.0233600      -0.1914000      -0.2369500
 C        0.3559700       0.2929900       0.0573900
 O        1.2602600      -0.4768600       0.3620600
 C        0.5728200       1.7775100      -0.0407000
 C       -1.3418000      -1.4904500      -0.1767600
 H       -0.1131500       2.2988800       0.6479300
 H       -1.7694900       0.5625200      -0.5046200
 H        0.3195100       2.1227100      -1.0572700
 H        1.6132900       2.0345100       0.1963700
 H       -0.5857700      -2.2345100       0.0931000
 H       -2.3530100      -1.8459300      -0.3916100

