%chk=gs_28_reactant_2.chk
%mem=2GB
%nprocshared=2
#P AM1 Freq NoSymm

dipolar_000309 AM1 SPE on relaxed reactant_2 (n=21)

0 1
 C        0.8735800      -0.0505800      -0.1757300
 C        0.7788600       1.4689100      -0.4296500
 O        2.0480300      -0.5842500       0.2059500
 C        2.0152700      -1.9393600       0.6551000
 C       -0.3802700      -0.5096500      -0.3408800
 O       -0.9163500      -1.7571300      -0.1922300
 C       -1.8291900      -1.8728700       0.8997800
 C       -1.2108000       0.7646400      -0.6548200
 O       -0.2447300       1.4992900      -1.4410400
 C       -1.2464100       1.6434700       0.6175000
 C        0.0070400       2.0842500       0.7640900
 H        1.7062200       1.9595600      -0.7467600
 H        1.6780800      -2.6128400      -0.1480100
 H        1.3457200      -2.0461200       1.5242900
 H       -1.3242600      -1.6604000       1.8581100
 H       -2.2014900      -2.9063500       0.9019400
 H       -2.6836500      -1.1833100       0.7858600
 H       -2.1541200       0.6054000      -1.1899600
 H       -2.1166300       1.7880400       1.2571200
 H        0.4498900       2.6888800       1.5547800
 H        3.0413200      -2.1984700       0.9465900

