%chk=gs_29_reactant_1.chk
%mem=2GB
%nprocshared=2
#P AM1 Freq NoSymm

dipolar_000331 AM1 SPE on relaxed reactant_1 (n=20)

0 1
 C        0.0148000       0.2196400       0.4502600
 C       -1.5537100      -0.8425900      -1.2466700
 C        0.3262700       0.8147900       1.8058900
 C        2.5649300       0.1451900       0.1404700
 O        1.0660000      -0.1270200      -1.6760400
 C       -1.2332600      -0.1923000       0.0765200
 C       -2.4436300      -0.0610800       0.9586900
 C        1.1806000       0.0596800      -0.4640100
 H       -0.7773200      -1.5447300      -1.5766800
 H       -1.6429200      -0.0835100      -2.0420800
 H       -2.5169400      -1.3707400      -1.1843200
 H        2.7624900       1.1659100       0.5053100
 H        0.9050400       1.7468100       1.7085200
 H        3.3086600      -0.1120100      -0.6249600
 H       -0.5746200       1.0482200       2.3832000
 H       -2.8057100      -1.0655500       1.2417300
 H        0.9373400       0.1284300       2.4155800
 H       -3.2646000       0.4055100       0.3874800
 H       -2.2869100       0.5174700       1.8751700
 H        2.6666200      -0.5275900       1.0060200

