%chk=gs_25_reactant_1.chk
%mem=2GB
%nprocshared=2
#P AM1 Freq NoSymm

dipolar_000271 AM1 SPE on relaxed reactant_1 (n=17)

0 1
 C       -0.6855500      -1.0756200      -0.3886000
 C       -2.0668200      -1.4313300       0.0977100
 O       -0.1167600      -1.8062500      -1.2052800
 C       -0.0316100       0.1336700       0.1119600
 C        1.3081900       0.6123200      -0.2753300
 C        2.1449900      -0.1435400      -1.2645300
 O        1.7379800       1.6584400       0.2325200
 N       -0.5872800       0.9858000       1.0146900
 N       -1.7065200       0.9606500       1.6039200
 H       -2.7816800      -0.6239000      -0.1216700
 H       -2.3779500      -2.3606300      -0.3973200
 H        1.6154000      -0.2464900      -2.2226100
 H        0.0956500       1.7582900       1.1903700
 H        2.3390400      -1.1649900      -0.9059500
 H        3.0907800       0.3957900      -1.4065800
 H       -2.0772400      -1.5596800       1.1907200
 H       -1.7367800       1.7932900       2.2059600

