%chk=gs_2_reactant_2.chk
%mem=2GB
%nprocshared=2
#P AM1 Freq NoSymm

dipolar_000027 AM1 SPE on relaxed reactant_2 (n=17)

0 1
 C        1.5082800      -0.1891700       0.1627800
 C       -0.4136500      -0.5024300      -1.2181100
 C        0.2763500      -1.1417400       0.0069800
 C       -0.6980900      -0.7491100       1.1070300
 C       -1.2058700       0.4525700       0.7840900
 C       -0.5755400       0.8733100      -0.5347900
 C        0.9198100       1.2026800      -0.2117000
 H        2.3078100      -0.4848700      -0.5337400
 H        0.2263400      -0.4730500      -2.1146000
 H       -1.3762400      -0.9756300      -1.4642300
 H        0.5338700      -2.2072500      -0.0561000
 H       -0.8410600      -1.3002600       2.0393900
 H        1.9223400      -0.2222800       1.1810500
 H        1.0083600       1.9404600       0.5990200
 H       -1.1004000       1.6581600      -1.0952900
 H       -1.8497800       1.0867500       1.3978300
 H        1.4173800       1.6202600      -1.1004600

