%chk=gs_200_reactant_2.chk
%mem=2GB
%nprocshared=2
#P AM1 Freq NoSymm

dipolar_002817 AM1 SPE on relaxed reactant_2 (n=43)

0 1
 C        1.5192000      -2.0763400       0.0932800
 C       -1.1196800      -2.3092000       0.2008600
 C       -2.6879500       0.1844800       1.7204400
 C        0.2075200      -2.6794400      -0.4860900
 N       -2.7788600      -1.5805000      -2.7494400
 C       -2.9851000      -0.6289900       0.6187700
 C       -3.6802900       0.4922700       2.6534800
 C       -5.2726900      -0.8246800       1.3985200
 C       -4.2803700      -1.1354600       0.4637000
 C       -1.8580200      -1.0232200      -0.3446600
 C       -0.8047000      -0.0120300      -0.4818200
 C        2.1895900       0.9138400       0.9542700
 C        0.3087500       0.4540700      -0.5446300
 C        1.7646200       0.4869800      -0.4670800
 C        2.3554000       1.4980100      -1.4621500
 C        2.2508000      -0.9847200      -0.7112400
 C        4.0065100       1.6946300       2.2442800
 O        3.4548900       1.3157200       0.9701300
 O        3.4950900       1.0871200      -1.9991400
 C        4.1529300       1.9951500      -2.8993500
 C       -2.3878400      -1.3194300      -1.6890000
 O        1.8273300       2.5615900      -1.7054200
 O        1.4773200       0.8525500       1.9307400
 C       -4.9761600      -0.0099200       2.4944300
 H       -3.4390800       1.1290600       3.5077500
 H       -5.7528000       0.2342700       3.2228200
 H       -4.5218900      -1.7730700      -0.3893800
 H       -1.8408600      -3.1365400       0.1212300
 H        0.1404100      -2.4803400      -1.5692300
 H       -1.6746700       0.5711400       1.8502800
 H        1.3468300      -1.7310600       1.1258300
 H        3.4356200       2.5320200       2.6690300
 H       -0.9515400      -2.1269700       1.2725200
 H        3.9826400       0.8400500       2.9347400
 H        5.0402100       1.9971500       2.0441100
 H        2.1507400      -1.1828400      -1.7887400
 H        4.4125300       2.9252700      -2.3741300
 H        3.3242300      -1.0104800      -0.4782100
 H        5.0593800       1.4795500      -3.2354500
 H        3.5012300       2.2226300      -3.7545000
 H        0.2901700      -3.7733700      -0.3982900
 H        2.2409700      -2.9025200       0.1810500
 H       -6.2818100      -1.2215500       1.2660800

