%chk=gs_24_reactant_1.chk
%mem=2GB
%nprocshared=2
#P AM1 Freq NoSymm

dipolar_000263 AM1 SPE on relaxed reactant_1 (n=17)

0 1
 C        0.5981900      -0.4026900       0.6172000
 C       -2.2691500       1.6135200       0.5064200
 C        1.8209900      -0.3396400      -0.1526000
 N       -0.5511000      -0.0688600       0.3382600
 C       -1.7686700       0.2486300       0.1338400
 C       -2.7146000      -0.7379700      -0.4858200
 C        2.6970100       0.8591200       0.1205700
 O        2.1743700      -1.2731900      -0.8784400
 H       -1.4811700       2.2217400       0.9704900
 H       -3.1163900       1.5246800       1.2075900
 H       -2.6449600       2.1371900      -0.3890300
 H       -2.2198500      -1.6953500      -0.6974200
 H        3.4297400       0.6004400       0.9036300
 H        2.1161800       1.7267200       0.4669600
 H        3.2515900       1.1097500      -0.7958600
 H       -3.1248400      -0.3313600      -1.4257800
 H       -3.5691300      -0.9145900       0.1895400

