%chk=gs_27_reactant_1.chk
%mem=2GB
%nprocshared=2
#P AM1 Freq NoSymm

dipolar_000298 AM1 SPE on relaxed reactant_1 (n=13)

0 1
 N       -1.2335400      -0.7980900       0.0705800
 C       -1.9508200       0.4440700       0.0727000
 N        0.0653400      -0.6008500       0.0109700
 C        0.8080200       0.4915100      -0.0459600
 C        2.2942100       0.4007300      -0.1061900
 H       -3.0283800       0.2358500       0.1234600
 H       -1.7643800       1.0608500      -0.8356800
 H        0.5946300      -1.4788700       0.0090400
 H        0.3042000       1.4562700      -0.0483400
 H        2.7696800       0.9182000       0.7463400
 H        2.6954000       0.8716100      -1.0216500
 H        2.6310700      -0.6486000      -0.0926400
 H       -1.6889800       1.1013500       0.9328800

