%chk=gs_32_reactant_1.chk
%mem=2GB
%nprocshared=2
#P AM1 Freq NoSymm

dipolar_000360 AM1 SPE on relaxed reactant_1 (n=14)

0 1
 C        2.9459800       1.3849300      -0.3032800
 O        1.5421800       1.1007300      -0.2144900
 C       -0.2160400      -0.3604200       0.0604500
 O        2.0218900      -1.0827700       0.0991900
 C       -1.4143700      -0.5651000       0.1272100
 C       -3.5894000       0.2933500       0.0776300
 O       -2.6633000      -0.8261000       0.2040400
 C        1.2053300      -0.1838800      -0.0102300
 H        3.4009500       0.8328500      -1.1385900
 H        3.0234200       2.4645200      -0.4770100
 H       -3.4517000       0.7685000      -0.9032400
 H       -3.4036200       1.0102900       0.8889300
 H       -4.5910500      -0.1409500       0.1631900
 H        3.4560300       1.1138200       0.6327000

