%chk=gs_34_reactant_1.chk
%mem=2GB
%nprocshared=2
#P AM1 Freq NoSymm

dipolar_000393 AM1 SPE on relaxed reactant_1 (n=12)

0 1
 C       -1.4178600       1.6401400      -0.8001100
 N       -1.6171300       0.2157400      -0.6063400
 C       -0.7502100      -0.6191500      -0.0038800
 O       -0.9036000      -1.8401800       0.0899400
 C        0.4147700       0.0228800       0.6211400
 N        1.5934700       0.1464200       0.4877100
 N        2.7862600       0.4491600       0.3797600
 H       -0.8830600       2.0683100       0.0601300
 H       -2.3951800       2.1348300      -0.8749000
 H       -0.8417900       1.8611500      -1.7136300
 H       -2.4047200      -0.2364100      -1.0653100
 H        3.3702600      -0.3312600       0.7160900

