%chk=gs_31_reactant_1.chk
%mem=2GB
%nprocshared=2
#P AM1 Freq NoSymm

dipolar_000344 AM1 SPE on relaxed reactant_1 (n=16)

0 1
 C        1.5410800      -0.1645900       0.9870600
 N        2.6173700       0.0343200       0.2083200
 C        0.2316600      -0.0461900       0.3482000
 O        1.5981300      -0.4369200       2.1912600
 C       -0.9036700       0.0320800      -0.0809000
 C       -2.8677300      -1.1382200      -1.1145400
 C       -2.2578600       0.1352000      -0.6112600
 C        2.6358800       0.3623100      -1.2047200
 O       -2.8248700       1.2169400      -0.6268800
 H        3.5102400      -0.0560600       0.6901000
 H        3.1285500       1.3321500      -1.3731300
 H        1.6107800       0.4231700      -1.5900900
 H        3.1762200      -0.4080900      -1.7756500
 H       -2.2366700      -1.5596700      -1.9143100
 H       -3.8811700      -0.9445900      -1.4899600
 H       -2.8958000      -1.8811800      -0.3004400

