%chk=gs_39_reactant_1.chk
%mem=2GB
%nprocshared=2
#P AM1 Freq NoSymm

dipolar_000418 AM1 SPE on relaxed reactant_1 (n=25)

0 1
 C       -1.5484200       0.3621000      -1.0836000
 C       -2.3153300      -0.4586200       0.0078500
 C       -0.8189400      -0.7683500      -1.8348300
 C       -0.1009900      -1.2783500      -0.5704500
 C        1.6896400       0.1294300       0.7994600
 C        0.4950500       0.0292900      -0.0465600
 C       -0.3936600       1.0195100      -0.3523000
 C       -0.4264800       2.4532900       0.0358000
 C       -1.3197100      -1.6038700       0.3480200
 C        2.2986200      -1.1690100       1.2736800
 O        2.1996300       1.2079700       1.1170600
 H       -3.2528400      -0.8496500      -0.4145900
 H       -2.5734900       0.1641100       0.8766100
 H       -1.7400000      -2.5886000       0.0934900
 H       -1.5040600      -1.5074600      -2.2783500
 H        0.6044100      -2.1073600      -0.6991800
 H       -1.0338100      -1.6239900       1.4093800
 H        2.6807600      -1.7405300       0.4118000
 H        1.5405300      -1.8010500       1.7631300
 H        0.4135200       2.7336300       0.6801600
 H       -0.1248400      -0.3962700      -2.6032300
 H       -2.1827600       1.0463900      -1.6619400
 H       -1.3790000       2.6790800       0.5466800
 H        3.1229300      -0.9629300       1.9691000
 H       -0.4091200       3.0871000      -0.8686300

