%chk=gs_38_reactant_2.chk
%mem=2GB
%nprocshared=2
#P AM1 Freq NoSymm

dipolar_000415 AM1 SPE on relaxed reactant_2 (n=22)

0 1
 C        0.7160800       0.3282000      -0.0761800
 C        1.3017700       1.5675400       0.2081400
 N        1.8052400       2.6021000       0.4418700
 C       -0.6850000       0.0531100       0.2057900
 C       -1.4858800       1.0401600       0.8325900
 N        1.5329700      -0.6406500      -0.6437500
 C       -1.3118400      -1.1740100      -0.1192500
 C       -2.6581500      -1.3967100       0.1730900
 C       -3.4330600      -0.4115400       0.7936400
 C       -2.8294400       0.8098800       1.1181000
 C        2.7892200      -0.6002200      -0.9962600
 C        3.4825900      -1.7704400      -1.5816100
 H        1.0681100      -1.5376800      -0.8047400
 H        3.3218400       0.3418400      -0.8399900
 H        4.3428200      -2.0633200      -0.9542100
 H       -1.0390500       2.0009100       1.0987200
 H       -0.7589600      -1.9772100      -0.6127700
 H       -3.1057100      -2.3576600      -0.0938000
 H       -4.4866100      -0.5905900       1.0185200
 H        2.8087000      -2.6342300      -1.6839800
 H       -3.4129200       1.5970100       1.6029600
 H        3.8924100      -1.5181700      -2.5752300

