%chk=gs_34_reactant_2.chk
%mem=2GB
%nprocshared=2
#P AM1 Freq NoSymm

dipolar_000393 AM1 SPE on relaxed reactant_2 (n=14)

0 1
 C       -1.6113200      -0.2328000      -0.6367300
 C       -2.3589400      -0.4923100       0.6898300
 N        2.6561700      -1.6996700       1.1812400
 C        0.3559200      -1.1298500       0.1802100
 C       -0.8626200      -2.1023200       0.0541700
 C       -1.8912100      -1.6675700       1.1187100
 C        1.6159100      -1.4306400       0.7288700
 O       -1.4635700      -1.5683300      -1.1346900
 C       -0.1363000       0.0472900      -0.2549900
 Br       0.6613000       1.7251200      -0.2850700
 H       -2.0648600       0.4468000      -1.3649100
 H       -0.6186800      -3.1651500      -0.0329000
 H       -2.1070700      -2.2143600       2.0355200
 H       -3.0606500       0.1985400       1.1547400

