%chk=gs_3_reactant_1.chk
%mem=2GB
%nprocshared=2
#P AM1 Freq NoSymm

dipolar_000034 AM1 SPE on relaxed reactant_1 (n=10)

0 1
 C       -2.8631000      -0.2122600      -0.3940500
 O       -1.4497900      -0.4473500      -0.5165800
 C       -0.6549500       0.3067400       0.2456400
 O       -1.0496400       1.1572600       1.0178100
 C        0.7419200      -0.0123300       0.0395200
 C        1.9203000      -0.2363300      -0.0930400
 F        3.1574900      -0.4742200      -0.2350000
 H       -3.3436600      -0.9174000      -1.0814700
 H       -3.1941800      -0.3979900       0.6377300
 H       -3.1044100       0.8224400      -0.6767700

