%chk=gs_36_reactant_1.chk
%mem=2GB
%nprocshared=2
#P AM1 Freq NoSymm

dipolar_000404 AM1 SPE on relaxed reactant_1 (n=21)

0 1
 C        1.3791200      -0.6124400      -0.0285400
 C        2.7669000      -1.0233000      -0.0146200
 O        3.0549300      -2.2034100      -0.1362600
 C       -0.9487300       0.2659900      -0.0070900
 N        0.2545600      -0.2901900      -0.0288200
 C       -0.9151900       1.7350100       0.1465400
 C       -2.2128600       2.4921500       0.1892300
 C        3.7429100       0.1023700       0.1615300
 O        0.1683500       2.3132100       0.2370100
 C       -2.1195500      -0.6085100      -0.1326300
 C       -1.8528400      -2.0885700      -0.2750600
 O       -3.2655900      -0.1623600      -0.1231900
 H       -1.2580400      -2.2890900      -1.1808800
 H       -1.2750500      -2.4652300       0.5841700
 H        4.4657700       0.0733200      -0.6690800
 H       -1.9910700       3.5615000       0.3028400
 H        3.2445900       1.0808900       0.1939700
 H        4.2964200      -0.0630200       1.1002300
 H       -2.8093900      -2.6222200      -0.3386700
 H       -2.8372700       2.1420700       1.0246100
 H       -2.7924700       2.3184900      -0.7294400

