%chk=gs_37_reactant_1.chk
%mem=2GB
%nprocshared=2
#P AM1 Freq NoSymm

dipolar_000411 AM1 SPE on relaxed reactant_1 (n=21)

0 1
 C        1.8187100      -0.8050500       0.3707400
 F        1.3916300       1.5087600       0.6957400
 C        0.8527900       0.3416400       0.3291000
 C        3.2258800      -0.4967900       0.7692500
 O        1.4198600      -1.9193100       0.0742900
 C       -0.4341800       0.2345200      -0.0523900
 C       -1.0310900      -1.1181600      -0.4145200
 C       -0.9327000      -1.5280100      -1.8520700
 O       -1.6542200      -1.7340700       0.4284100
 C       -1.4179100       1.3594400      -0.1493600
 C       -1.0155000       2.7580300       0.2135400
 O       -2.5475900       1.0955400      -0.5428100
 H        3.6546400       0.2490900       0.0800100
 H       -0.1769200       3.0903800      -0.4176600
 H       -0.6678400       2.7996800       1.2570900
 H       -1.2673800      -2.5668000      -1.9759100
 H        0.0898200      -1.3957300      -2.2325600
 H       -1.5920700      -0.8587500      -2.4314500
 H       -1.8774200       3.4229000       0.0749100
 H        3.2390800      -0.0464400       1.7751900
 H        3.8240500      -1.4159000       0.7557800

