%chk=gs_33_reactant_1.chk
%mem=2GB
%nprocshared=2
#P AM1 Freq NoSymm

dipolar_000372 AM1 SPE on relaxed reactant_1 (n=21)

0 1
 C       -3.8930100       1.5110900      -0.4976800
 N       -2.9150400       0.5087700      -0.1210000
 C       -0.6749000      -0.3442900       0.1665300
 O       -1.1248500       1.7846400      -0.7138400
 C       -1.0706300      -1.5867400       0.6890100
 C        1.7264600      -0.7271000       0.2514000
 N       -1.4128800      -2.6168300       1.1223200
 N        0.6308400      -0.0403100       0.0020400
 C        3.0564000      -0.1934800      -0.0147500
 C        3.1924300       1.1933300      -0.5931600
 C       -1.5965700       0.7290800      -0.2542800
 O        4.0379200      -0.8928600       0.2426100
 H       -4.8967500       1.0871200      -0.3755100
 H       -3.8104500       2.4123800       0.1311300
 H       -3.7615200       1.8154400      -1.5473300
 H       -3.2373500      -0.3647900       0.2837700
 H        1.6335600      -1.7313700       0.6688600
 H        0.7110100       0.9127900      -0.3961900
 H        2.6657300       1.2727800      -1.5584300
 H        2.7553200       1.9438500       0.0861300
 H        4.2561700       1.4171300      -0.7414800

