%chk=gs_32_reactant_2.chk
%mem=2GB
%nprocshared=2
#P AM1 Freq NoSymm

dipolar_000360 AM1 SPE on relaxed reactant_2 (n=19)

0 1
 C        0.5712800      -0.3402600      -0.0317600
 C        1.9572600       0.1255600       0.0291000
 N       -2.1326100      -2.6232900      -0.2680200
 C        4.1811200      -0.6650700      -0.0200600
 N       -0.4946400       0.4339100       0.0343900
 N       -3.9021900       1.3702000       0.0937300
 C       -1.9699500      -1.4722800      -0.1578600
 C       -0.3594300       1.9031300       0.1787900
 C       -1.7766300      -0.0813500      -0.0252000
 O        2.3553600       1.2716600       0.1472300
 O        2.7743600      -0.9356600      -0.0664100
 C       -2.9176800       0.7427600       0.0428500
 H        0.4121100      -1.4122900      -0.1392700
 H       -1.3533100       2.3544400       0.2102600
 H        0.2062500       2.2911000      -0.6742400
 H        0.1836000       2.1178400       1.1047900
 H        4.4505400      -0.1903200       0.9348500
 H        4.4741900      -0.0054600      -0.8499800
 H        4.6783100      -1.6372000      -0.1144200

