%chk=gs_48_reactant_2.chk
%mem=2GB
%nprocshared=2
#P AM1 Freq NoSymm

dipolar_000535 AM1 SPE on relaxed reactant_2 (n=13)

0 1
 C       -1.1551400       0.3015300       0.6395100
 C       -1.7395700      -0.8085600      -0.2724300
 O       -0.3954600      -0.5059900       1.5633600
 C        0.9586700       0.0395700      -0.1801300
 C       -0.7841200      -1.7395000      -0.3332600
 F        2.1207400       0.0215400      -0.8256300
 C        0.0057700       0.9685800      -0.1207300
 F       -0.0803500       2.1674100      -0.6889900
 C        0.3682600      -1.1842600       0.5437900
 H       -1.8568500       0.9780400       1.1397200
 H       -2.7088200      -0.7650800      -0.7673600
 H        1.0911200      -1.8976600       0.9546700
 H       -0.7502700      -2.6739600      -0.8917700

