%chk=gs_49_reactant_1.chk
%mem=2GB
%nprocshared=2
#P AM1 Freq NoSymm

dipolar_000541 AM1 SPE on relaxed reactant_1 (n=17)

0 1
 C        0.1557300       1.4151500       0.7187100
 C        0.4965900       0.1269200       0.0555600
 O        1.9987000      -1.4678500      -0.7784500
 C        1.8430500      -0.3718600      -0.2136400
 C        3.0242900       0.4615100       0.2033200
 N       -0.4490900      -0.7156500      -0.3670300
 C       -1.7861700      -0.7223100      -0.3535100
 C       -2.6051500       0.2848500       0.1826200
 N       -3.3670800       1.0682700       0.6024500
 H        1.0602200       1.9765200       0.9777000
 H       -0.4622100       2.0514200       0.0628200
 H        3.0041700       0.6527400       1.2881800
 H        3.9507000      -0.0647600      -0.0594300
 H       -0.0128900      -1.5464000      -0.8002300
 H       -0.4176300       1.2497600       1.6467100
 H       -2.2675200      -1.5930400      -0.7988900
 H        3.0046400       1.4422800      -0.2987400

