%chk=gs_48_reactant_1.chk
%mem=2GB
%nprocshared=2
#P AM1 Freq NoSymm

dipolar_000535 AM1 SPE on relaxed reactant_1 (n=25)

0 1
 C       -1.4952500      -0.6933100       0.0674000
 N       -2.7478200      -0.1722000       0.1140100
 C       -0.3776400       0.2462200       0.2830600
 O       -1.3338000      -1.9033700      -0.1877500
 C       -0.5874600       1.7263100       0.2561300
 C       -3.9061700      -0.9991700      -0.1485200
 C        1.9100400       1.3853300      -0.9741600
 C        2.0011200       0.4410000       0.0605300
 C        3.3561200       0.1310500       0.6336700
 N        1.8673300       2.1401900      -1.8708600
 N        0.8785100      -0.2497800       0.4186200
 C        1.1110200      -1.5500100       1.0821000
 H        0.1816000      -1.9169000       1.5152200
 H       -4.0033400      -1.8096700       0.5924800
 H       -2.8907900       0.8111000       0.3041100
 H       -1.5223800       1.9904500       0.7735300
 H       -0.6311500       2.1719400      -0.7535300
 H        0.2347500       2.2276900       0.7902700
 H       -4.8058400      -0.3730900      -0.1037500
 H        4.0780300       0.8751400       0.2714000
 H        3.7256600      -0.8642400       0.3335000
 H        3.3564200       0.1704700       1.7358700
 H        1.5089500      -2.2784200       0.3638700
 H        1.8443700      -1.3936300       1.8820400
 H       -3.8496400      -1.4663700      -1.1452000

