%chk=gs_45_reactant_2.chk
%mem=2GB
%nprocshared=2
#P AM1 Freq NoSymm

dipolar_000502 AM1 SPE on relaxed reactant_2 (n=14)

0 1
 C        2.7542700       1.2237100      -0.2527800
 O       -1.1010500       0.4742500      -0.0787200
 C        1.0292400      -0.4519100       0.0794200
 O       -0.9255800      -1.7555000       0.3378300
 C       -0.3703300      -0.6720400       0.1308100
 N        1.5231500       0.7950900      -0.1628000
 C       -2.5195100       0.3434500      -0.0479300
 H        2.9207200       2.2797300      -0.4573700
 H        0.7883700       1.4997600      -0.2936700
 H        3.5775400       0.5197800      -0.1226200
 H       -2.8732400      -0.3497000      -0.8270400
 H        1.7312100      -1.2694500       0.2304500
 H       -2.8655200      -0.0184100       0.9328200
 H       -2.9249700       1.3459300      -0.2350400

