%chk=gs_40_reactant_2.chk
%mem=2GB
%nprocshared=2
#P AM1 Freq NoSymm

dipolar_000425 AM1 SPE on relaxed reactant_2 (n=13)

0 1
 C       -1.9585500      -0.7065100       0.6400700
 C        0.5301600       0.4171000      -0.0103400
 O       -0.9949900      -0.4863000      -1.4299600
 C       -1.6861500       0.3416000      -0.4669900
 C        0.0026600      -0.9516500      -0.5072100
 C       -0.8971700      -1.5171900       0.6176900
 Cl       2.1513200       0.6632800       0.5165800
 C       -0.5219700       1.2385200       0.0172900
 H       -2.8191600      -0.7013500       1.3082700
 H       -0.6028400       2.2625600       0.3760400
 H       -2.5519600       0.8489200      -0.9059300
 H        0.7337900      -1.6219600      -0.9711500
 H       -0.6437200      -2.3603100       1.2591100

