%chk=gs_44_reactant_1.chk
%mem=2GB
%nprocshared=2
#P AM1 Freq NoSymm

dipolar_000487 AM1 SPE on relaxed reactant_1 (n=21)

0 1
 C        1.3524900      -0.3817200      -0.7405200
 N        2.4183800       0.0558700      -0.0499100
 C        0.0206200       0.1464600      -0.3668200
 O        1.4282000      -1.2098100      -1.6588600
 C       -0.5300100       0.5059400       0.8124300
 C       -2.0423700      -1.0924300      -0.9480700
 C        3.7531400      -0.4418700      -0.3235000
 N        0.5184400       0.6799100       3.1583300
 C       -2.5968000      -0.7386900       0.2147100
 O       -1.9485800       1.2011600      -0.8287300
 C        0.0529800       0.5930800       2.0931800
 C       -2.0523300       0.6772600       0.4980300
 C       -1.1703300       0.1141800      -1.3533300
 H        2.2925400       0.7515200       0.6783100
 H        4.0367900      -0.2542200      -1.3709700
 H       -0.9228600       0.2387700      -2.4115500
 H        4.4638400       0.0713000       0.3348600
 H       -3.2417300      -1.3037600       0.8860900
 H       -2.6161100       1.3271200       1.1738800
 H       -2.0998000      -2.0296000      -1.4995300
 H        3.8180200      -1.5265000      -0.1434700

