%chk=gs_47_reactant_1.chk
%mem=2GB
%nprocshared=2
#P AM1 Freq NoSymm

dipolar_000517 AM1 SPE on relaxed reactant_1 (n=17)

0 1
 C        3.1841800       0.9553600      -0.3061500
 N        1.9701200       0.3594900       0.2181600
 C        0.8060200       0.4594300      -0.4509900
 O        0.7039600       1.0598100      -1.5243100
 C       -0.3525900      -0.2277100       0.1970900
 C       -0.1567500      -1.1242300       1.2836500
 N        0.0635900      -1.8471300       2.1694100
 N       -1.6224500      -0.0908400      -0.2004900
 C       -2.0243300       0.8074500      -1.3073300
 O       -2.5450800      -0.7252500       0.3555300
 H        3.1170900       2.0551600      -0.3266200
 H        3.3769300       0.6076100      -1.3322000
 H        4.0247200       0.6629100       0.3341200
 H       -1.5884300       1.8000000      -1.1594300
 H       -3.1172100       0.8312400      -1.2729700
 H        2.0029000      -0.0928600       1.1264000
 H       -1.6626100       0.3896900      -2.2537600

