%chk=gs_55_reactant_1.chk
%mem=2GB
%nprocshared=2
#P AM1 Freq NoSymm

dipolar_000628 AM1 SPE on relaxed reactant_1 (n=17)

0 1
 C       -2.0042700       0.2401000       0.1204400
 C        1.1898400      -0.6738400       0.0023200
 O        0.6377800      -1.7854200       0.1958600
 C        0.4749200       0.5502700      -0.1158000
 C        2.7005500      -0.5817900      -0.1217100
 N       -0.8642600       0.4480700       0.0029100
 C        1.0829200       1.9084200      -0.3502800
 C       -3.4216000      -0.0001300       0.2664600
 H       -3.8348300       0.5877900       1.1016300
 H        1.7331600       2.2287700       0.4829200
 H       -3.5625600      -1.0702900       0.4892500
 H        3.1367500      -1.5802200       0.0192800
 H        2.9950700      -0.1969900      -1.1121600
 H        3.1239200       0.1078300       0.6267200
 H        0.2946300       2.6670200      -0.4620300
 H        1.6971900       1.9345800      -1.2665700
 H       -3.9635500       0.2403600      -0.6622300

