%chk=gs_57_reactant_1.chk
%mem=2GB
%nprocshared=2
#P AM1 Freq NoSymm

dipolar_000658 AM1 SPE on relaxed reactant_1 (n=26)

0 1
 C       -0.9799600       2.4789100       1.1405400
 N       -0.4388300       1.5020500       0.7448900
 C        0.2166700       0.4090600       0.2973800
 O        2.1742300       1.4274100       1.1517800
 C       -0.5907800      -0.6443600      -0.3217400
 C        1.6603800       0.5088700       0.4750000
 C        3.8959200      -0.2758800      -0.1369800
 C       -0.1596200      -1.9901500      -0.4098400
 C       -0.9538600      -2.9669900      -1.0137000
 C       -1.8746900      -0.3463800      -0.8426400
 C       -1.6585300       3.6408900       1.6662500
 N        2.4552400      -0.4207300      -0.1356700
 C       -2.2112200      -2.6492500      -1.5357900
 C       -2.6663600      -1.3291700      -1.4340900
 H       -2.5229300       3.8793400       1.0261800
 H       -2.2517100       0.6773200      -0.7895900
 H       -2.0004700       3.4782000       2.7010200
 H       -3.6492800      -1.0574900      -1.8282000
 H        0.7918600      -2.2881700       0.0294700
 H        4.3434000      -1.1728100      -0.5852200
 H        4.2348900       0.6072100      -0.7082300
 H        4.2774000      -0.1730200       0.8895000
 H        2.0424300      -1.0130600      -0.8464000
 H       -0.5850800      -3.9950100      -1.0620100
 H       -2.8291600      -3.4166500      -2.0072300
 H       -0.9664100       4.4977100       1.6415400

