%chk=gs_58_reactant_2.chk
%mem=2GB
%nprocshared=2
#P AM1 Freq NoSymm

dipolar_000700 AM1 SPE on relaxed reactant_2 (n=23)

0 1
 C        2.6691800       0.8794100       0.8041700
 C        1.4067400      -1.0865900      -0.9720200
 O        0.4579600       1.3260700       1.5834300
 C        0.6284200      -0.2685100      -0.1358000
 C        1.1687500       0.6712100       0.7905200
 N       -0.7807600      -0.5309800      -0.1130900
 N        2.0384800      -1.7784400      -1.6772100
 C       -1.1843200      -1.8993600       0.2496000
 C       -1.6617900       0.4304600      -0.2350000
 C       -3.0957100       0.1870400       0.0958500
 C       -1.2803600       1.7714000      -0.7401500
 H        3.2208000       0.2140100       0.1278100
 H        3.0371000       0.7382800       1.8325400
 H        2.8795600       1.9248000       0.5250900
 H       -0.4152700      -2.5909800      -0.1126800
 H       -0.3387700       1.7446900      -1.3040700
 H       -2.1433600      -2.1599000      -0.2103300
 H       -3.6131800       1.1444000       0.2353500
 H       -1.1455600       2.4539700       0.1149500
 H       -3.2159900      -0.4293200       0.9971400
 H       -3.5840000      -0.3401800      -0.7428800
 H       -2.0984800       2.1655900      -1.3607500
 H       -1.2542400      -1.9850300       1.3439600

