%chk=gs_5_reactant_2.chk
%mem=2GB
%nprocshared=2
#P AM1 Freq NoSymm

dipolar_000041 AM1 SPE on relaxed reactant_2 (n=13)

0 1
 C       -2.3323900      -0.5379700       0.1159700
 O        0.1918100      -1.1503900      -0.8299600
 C        0.1351500      -0.0351700      -0.0495100
 C        1.3134500       0.6850100       0.2087200
 N        2.3069800       1.2676400       0.4097200
 C       -1.1543500       0.3396800       0.4661100
 C        1.1843700      -1.6814300      -1.4075200
 O       -1.2728200       1.3488500       1.1737600
 H       -2.4478300      -0.6265600      -0.9754800
 H       -2.1873200      -1.5554500       0.5127000
 H        2.1851300      -1.2431800      -1.3186900
 H        0.9651100      -2.5845400      -1.9807700
 H       -3.2406400      -0.1006800       0.5501600

