%chk=gs_53_reactant_1.chk
%mem=2GB
%nprocshared=2
#P AM1 Freq NoSymm

dipolar_000583 AM1 SPE on relaxed reactant_1 (n=13)

0 1
 C        3.4313300       0.4767900      -0.3360500
 O       -0.9930300      -1.5012000       0.1808800
 C        0.8270500      -0.0285700      -0.0677900
 O       -1.3478800       0.7240000       0.0767000
 C       -0.5695900      -0.3651700       0.0753200
 C       -2.7606000       0.4994100       0.2088200
 C        2.0141900       0.2003100      -0.1900700
 H        3.9763800       0.1770900       0.5738600
 H        3.8497400      -0.0902500      -1.1833100
 H        3.6099700       1.5493500      -0.5108200
 H       -3.1327900      -0.1095900      -0.6277200
 H       -3.2247100       1.4921100       0.1923100
 H       -2.9822100      -0.0092800       1.1582100

