%chk=gs_59_reactant_1.chk
%mem=2GB
%nprocshared=2
#P AM1 Freq NoSymm

dipolar_000721 AM1 SPE on relaxed reactant_1 (n=17)

0 1
 C       -0.9032100      -0.4984400       0.0273500
 C       -0.2521100       0.6857800       0.0383800
 C        0.1614100      -1.5100200       0.5227200
 C        1.2067100      -1.6378500      -0.6051500
 C        1.8571200      -0.4702800      -0.6005600
 C       -2.2608600      -0.8696700      -0.4218400
 O        0.8781800      -0.6891500       1.4616400
 C       -0.7119500       1.9457500      -0.3888800
 C        1.1916400       0.3503700       0.5237600
 N       -1.0815000       2.9974800      -0.7352200
 H        1.7607900       1.1696100       0.9736700
 H       -2.8368100       0.0012000      -0.7644100
 H        2.6409400      -0.1048300      -1.2629400
 H       -0.2210600      -2.4308400       0.9756800
 H        1.3054600      -2.4919000      -1.2739000
 H       -2.1892800      -1.5999300      -1.2476100
 H       -2.8116300      -1.3739000       0.3901700

