%chk=gs_53_reactant_2.chk
%mem=2GB
%nprocshared=2
#P AM1 Freq NoSymm

dipolar_000583 AM1 SPE on relaxed reactant_2 (n=27)

0 1
 C        1.0476600       1.1780200      -0.3271300
 C        1.8663600      -0.0381300      -0.0872500
 C        3.9035200      -0.7788200       0.8293400
 O        0.2549200      -0.0071000       1.8422100
 C       -1.0721800       0.1194200      -0.1031400
 C       -2.1722100       0.0157900      -2.4070600
 O        2.9903100       0.2928400       0.5454000
 N       -0.2339900       1.1626900      -0.5612600
 C       -0.7927200      -0.3262800       1.2464400
 C       -2.1501400      -0.3650800      -0.9361800
 C       -1.8021300      -1.1771100       1.9802300
 O       -3.0314200      -1.1334100      -0.5177700
 O        1.6072800      -1.1507000      -0.4962400
 C       -0.8382600       2.4041000      -1.0984200
 H        4.2415300      -1.2521800      -0.1035700
 H        4.7501800      -0.3223600       1.3539900
 H        3.4168700      -1.5298600       1.4681900
 H       -1.1732800       0.1821300      -2.8322100
 H        1.5774300       2.1282700      -0.4221300
 H       -2.6731600      -0.7942800      -2.9546300
 H       -1.4668700      -1.2793500       3.0211000
 H       -1.8567100      -2.1731100       1.5144300
 H       -2.8139700      -0.7541500       1.9379200
 H       -0.7054100       2.4382100      -2.1866100
 H       -2.7671600       0.9316600      -2.5511900
 H       -1.9011000       2.4274100      -0.8413200
 H       -0.3310600       3.2654800      -0.6460100

