%chk=gs_55_reactant_2.chk
%mem=2GB
%nprocshared=2
#P AM1 Freq NoSymm

dipolar_000628 AM1 SPE on relaxed reactant_2 (n=13)

0 1
 C       -0.1963300       0.2151900      -0.2371300
 C        0.0651600      -1.0967300      -0.1959900
 O       -2.0109700      -0.8586900      -1.1059800
 C       -2.2818700      -0.1674600       1.0674900
 C       -1.3237400      -1.7812000      -0.2423000
 Cl       1.5418600      -1.9238600       0.0629200
 C       -2.0196000      -1.4764800       1.1062100
 Br       0.9517900       1.6688100      -0.0158500
 C       -1.7418800       0.3050100      -0.3043700
 H       -2.1612500       1.2197500      -0.7358300
 H       -2.1847400      -2.2019100       1.9015900
 H       -2.7233600       0.4820800       1.8221900
 H       -1.3452100      -2.8101300      -0.6156300

