%chk=gs_52_reactant_2.chk
%mem=2GB
%nprocshared=2
#P AM1 Freq NoSymm

dipolar_000568 AM1 SPE on relaxed reactant_2 (n=21)

0 1
 N        1.9419600       0.4359000      -0.1657300
 N        1.9632400       1.3119500      -1.1059500
 C        1.1030200      -1.2468600       1.2829500
 C        0.8643500      -0.2261600       0.3381600
 C        3.2723500       0.1256100       0.4059300
 N        1.2539900      -2.0988500       2.0699300
 C       -0.5240700       0.0323500      -0.0911700
 C       -1.4124700      -1.0508100      -0.2424900
 C       -2.7428200      -0.8375400      -0.6034300
 C       -3.2147100       0.4605100      -0.8238800
 C       -2.3456600       1.5445900      -0.6673200
 C       -1.0148500       1.3379500      -0.3003400
 H        3.9906300       0.7947600      -0.0743300
 H        3.5229800      -0.9211800       0.1924500
 H        3.2541800       0.2900000       1.4899200
 H       -1.0514800      -2.0683100      -0.0771400
 H        1.0054500       1.4166500      -1.4614900
 H       -3.4136600      -1.6920700      -0.7184400
 H       -4.2551800       0.6266600      -1.1118400
 H       -2.7071300       2.5640400      -0.8206600
 H       -0.3662200       2.2029800      -0.1511100

