%chk=gs_56_reactant_1.chk
%mem=2GB
%nprocshared=2
#P AM1 Freq NoSymm

dipolar_000648 AM1 SPE on relaxed reactant_1 (n=23)

0 1
 C       -1.7982100      -1.1034000      -0.4269200
 C       -0.0092500       0.6232900      -0.1196300
 C       -1.4242800       0.2394700      -0.2020000
 C       -3.1424900      -1.4688400      -0.4667600
 C       -3.7823700       0.8318800      -0.0807600
 C       -2.4399200       1.2049300      -0.0431100
 C        0.4746500       1.9785900      -0.4953600
 C       -4.1396300      -0.5039800      -0.2915100
 N        0.8443300      -0.2856200       0.2988300
 C        2.2446000      -0.2650700       0.3612300
 C        2.8664500      -1.1682900       1.2402700
 N        3.3900000      -1.9214900       1.9691400
 C        3.0390900       0.5123800      -0.4965900
 N        3.7369900       1.1278100      -1.2083900
 H       -1.0371700      -1.8651900      -0.6095600
 H       -3.4122900      -2.5106800      -0.6522100
 H        0.4346600      -1.1583000       0.6423300
 H       -5.1928600      -0.7909100      -0.3282000
 H       -4.5554900       1.5906700       0.0578400
 H       -2.1826900       2.2487400       0.1386200
 H       -0.3519700       2.6943600      -0.5458500
 H        0.9561000       1.9577100      -1.4869900
 H        1.2248600       2.3345200       0.2274800

