%chk=gs_5_reactant_1.chk
%mem=2GB
%nprocshared=2
#P AM1 Freq NoSymm

dipolar_000041 AM1 SPE on relaxed reactant_1 (n=13)

0 1
 C       -0.5248300      -0.4334800      -0.0186700
 O       -0.8302000      -1.6029000       0.1239200
 C        0.8166800       0.0796800       0.1276200
 O       -1.3974400       0.5324400      -0.3307700
 C        1.9624900       0.4612600       0.2623300
 C        3.3296400       0.9206000       0.4235400
 C       -2.7648600       0.1264500      -0.5003700
 H       -2.8499400      -0.6064600      -1.3157800
 H       -3.1535200      -0.3140800       0.4291800
 H       -3.3195900       1.0382400      -0.7496500
 H        3.6405000       0.8340000       1.4774800
 H        3.4327800       1.9732700       0.1168200
 H        4.0171300       0.3096000      -0.1834000

