%chk=gs_63_reactant_2.chk
%mem=2GB
%nprocshared=2
#P AM1 Freq NoSymm

dipolar_000763 AM1 SPE on relaxed reactant_2 (n=20)

0 1
 C       -0.8147700       0.6624100      -0.5819500
 C       -0.7275600      -1.4323400       0.3473700
 O       -1.7801500      -1.3975300      -0.6322400
 O        2.1349600      -1.0318500       0.6347500
 C       -1.4932700      -0.9767900       1.6085500
 C        0.1020000      -0.2175300      -0.1284600
 C        1.5547900      -0.0170600      -0.0105100
 C        3.5553800      -0.9483300       0.8275300
 C       -0.6363300       1.9724900      -1.0736000
 O        2.1509500       0.9524100      -0.4414200
 C       -2.4053200      -0.1089100       1.1629600
 C       -2.1855100      -0.0513300      -0.3634800
 N       -0.5425900       3.0564600      -1.4898400
 H       -0.2088400      -2.3943400       0.3770200
 H       -1.2544800      -1.2835700       2.6257900
 H       -3.1266100       0.4959000       1.7104800
 H       -3.0116100       0.2841100      -0.9972400
 H        4.0698400      -0.9095200      -0.1434300
 H        3.8090300      -0.0523200       1.4122100
 H        3.8390600      -1.8544200       1.3744100

