%chk=gs_63_reactant_1.chk
%mem=2GB
%nprocshared=2
#P AM1 Freq NoSymm

dipolar_000763 AM1 SPE on relaxed reactant_1 (n=19)

0 1
 C       -1.3549000       0.3665900      -0.1241600
 N        0.9128200      -0.1283900       0.0520200
 C       -0.3067500      -0.6373800       0.1394100
 O       -1.0393400       1.5410000      -0.4100500
 C       -0.4787700      -2.0746600       0.4728000
 C       -3.7273700       0.9006600      -0.2999700
 N       -2.6415400      -0.0238300      -0.0443400
 C        2.1133800      -0.7166000       0.2268600
 C        3.2857600       0.0309700       0.0789300
 N        4.2815100       0.6396500      -0.0403300
 H        0.8906000       0.8747300      -0.1897200
 H       -3.6835600       1.2970900      -1.3273000
 H        2.1597300      -1.7730800       0.4847500
 H       -2.8634800      -0.9826100       0.1948800
 H        0.0517400      -2.7087400      -0.2606100
 H       -1.5298400      -2.3853800       0.4866900
 H       -4.6798600       0.3741600      -0.1656700
 H       -0.0421300      -2.3017900       1.4625400
 H       -3.6952200       1.7573900       0.3920100

