%chk=gs_61_reactant_1.chk
%mem=2GB
%nprocshared=2
#P AM1 Freq NoSymm

dipolar_000753 AM1 SPE on relaxed reactant_1 (n=25)

0 1
 C       -0.6328000      -0.4338000       1.5028300
 N        2.2980800      -0.6789200       0.8453600
 C        0.1082700       0.1504400       0.3132000
 O        2.0382800       0.6001000      -1.0079800
 C       -0.8370500       0.6623900      -0.5181900
 C        1.5533500       0.0489900      -0.0089300
 C       -1.3523300      -1.7137800       0.9595200
 C       -2.4308500      -1.1293800       0.0054400
 C       -0.6669600       1.1863800      -1.8246900
 C       -2.2001900       0.4117800       0.1184800
 C       -1.8210500       0.5454200       1.6069600
 C        3.7184100      -0.8731500       0.6359800
 N       -0.6235300       1.6370400      -2.8987100
 H       -0.0373000      -0.5953000       2.4094500
 H        1.8558500      -1.1099200       1.6493600
 H        4.1123900      -1.5102300       1.4366400
 H        4.2572800       0.0877100       0.6466500
 H        3.9139300      -1.3570100      -0.3342000
 H       -0.6474800      -2.3896900       0.4561300
 H       -2.3278000      -1.4794400      -1.0309400
 H       -3.4469200      -1.3739000       0.3474700
 H       -1.8083900      -2.2601600       1.7975900
 H       -3.0168200       1.0325000      -0.2669500
 H       -1.5162100       1.5646400       1.8849400
 H       -2.6114000       0.1910700       2.2848700

