%chk=gs_6_reactant_1.chk
%mem=2GB
%nprocshared=2
#P AM1 Freq NoSymm

dipolar_000049 AM1 SPE on relaxed reactant_1 (n=13)

0 1
 C        1.9226300       2.0495700       0.0823900
 N        1.2483700       0.9938800       0.3183700
 C        0.6396700      -0.0209600       0.6261700
 O        0.3825300      -1.6895600      -1.0025000
 C       -0.1789400      -0.8577100      -0.2783200
 N       -1.5144100      -0.7183900      -0.1765400
 C       -2.1843400       0.3057200       0.6030000
 H        2.9340500       1.9617700      -0.3263600
 H        1.4810700       3.0289300       0.2907600
 H       -2.2828500       1.2565600       0.0537100
 H       -1.6254700       0.5002800       1.5306800
 H       -3.1883400      -0.0440400       0.8771800
 H       -2.0651500      -1.3083500      -0.7958900

