%chk=gs_61_reactant_2.chk
%mem=2GB
%nprocshared=2
#P AM1 Freq NoSymm

dipolar_000753 AM1 SPE on relaxed reactant_2 (n=19)

0 1
 C        0.3234700       0.2430400       0.2043200
 C       -1.0692700      -0.1243200       0.1778700
 C        1.2591700      -0.2500000      -0.7344000
 C       -3.6393300      -0.9040700       0.0141400
 C        0.7680800       1.1297600       1.2101300
 C        2.5940100       0.1369100      -0.6609900
 C        2.1071200       1.5105300       1.2749000
 O       -1.4778100      -0.9414500      -0.7416200
 N       -2.7220400      -1.4209400      -0.9526600
 C        3.0257900       1.0170300       0.3414100
 H        0.0502800       1.5145300       1.9387000
 H        0.9266500      -0.9353800      -1.5158400
 H       -4.6237700      -1.3341000      -0.2111900
 H       -3.7266800       0.2051200      -0.0100800
 H       -1.7710300       0.2707300       0.9120800
 H        2.4376800       2.1963200       2.0584100
 H        4.0751100       1.3159900       0.3932600
 H        3.3089000      -0.2499100      -1.3911200
 H       -3.3708400      -1.1684900       1.0611800

