%chk=gs_64_reactant_2.chk
%mem=2GB
%nprocshared=2
#P AM1 Freq NoSymm

dipolar_000783 AM1 SPE on relaxed reactant_2 (n=11)

0 1
 C       -2.2858000      -0.5616300       0.4458600
 N       -1.7319200       0.6502500      -0.1251500
 C       -0.4360700       0.9370000      -0.3564600
 O       -0.0589700       2.0122300      -0.8376300
 C        0.5347000      -0.0964200      -0.0097600
 C        1.4115200      -0.8866300       0.2445600
 F        2.3299400      -1.7230700       0.5175500
 H       -3.0343700      -1.0012200      -0.2309100
 H       -2.3766700       1.3986800      -0.3715100
 H       -1.4890200      -1.2979200       0.6053300
 H       -2.7704500      -0.3575000       1.4137700

