%chk=gs_69_reactant_1.chk
%mem=2GB
%nprocshared=2
#P AM1 Freq NoSymm

dipolar_000876 AM1 SPE on relaxed reactant_1 (n=20)

0 1
 C       -1.8437100      -0.0141400      -0.0276700
 N       -3.0697800      -0.1143800       0.5253400
 C       -0.7117100      -0.1474400       0.8921700
 O       -1.6671500       0.1821500      -1.2453000
 C        1.7256700      -0.1168500       0.8719300
 N        0.4860000      -0.0478600       0.3592500
 C        2.8048600       0.0409200      -0.0540000
 C        4.2126800      -0.0330000       0.4831700
 C       -4.2746500      -0.0176900      -0.2721700
 O        2.5992800       0.2331700      -1.2719500
 H       -3.1457000      -0.2941300       1.5213500
 H       -5.1456700      -0.0527100       0.3931300
 H       -0.8174400      -0.3218100       1.9633200
 H        0.4802800       0.1174200      -0.6644100
 H        1.8482000      -0.2872000       1.9401100
 H       -4.3493800      -0.8463500      -0.9958100
 H        4.7510700      -0.8502200      -0.0243600
 H        4.2467300      -0.1968100       1.5688800
 H        4.7431600       0.9019500       0.2391700
 H       -4.2993000       0.9261800      -0.8391200

