%chk=gs_60_reactant_1.chk
%mem=2GB
%nprocshared=2
#P AM1 Freq NoSymm

dipolar_000732 AM1 SPE on relaxed reactant_1 (n=22)

0 1
 C       -3.5491000      -0.5500200       0.5672600
 N       -2.2263600      -0.0100200       0.3226900
 C       -1.1581200      -0.8139700       0.2467700
 O       -1.2385000      -2.0488400       0.3803200
 C        0.1633600      -0.1697200      -0.0068200
 C        1.4678300      -0.9132500      -0.1224800
 O        2.5025300      -0.2601200      -0.3386600
 N        1.4270200      -2.2366500       0.0172100
 C        2.6249600      -3.0460900      -0.0739700
 N        0.3555000       1.1196000      -0.1622900
 N       -0.5385000       2.0837000      -0.1271800
 C       -0.0770100       3.3069000      -0.3160800
 N        0.2139000       4.4317200      -0.4705700
 H       -3.8483900      -1.2437200      -0.2342300
 H       -4.2653800       0.2787500       0.6090700
 H       -2.0849700       0.9943400       0.2003600
 H        1.3662300       1.3261400      -0.3284800
 H        0.5027400      -2.6429100       0.1916400
 H        2.3508900      -4.0993300       0.0576100
 H        3.3531000      -2.7662000       0.7037900
 H        3.1125700      -2.9226500      -1.0538000
 H       -3.5802000      -1.1015300       1.5198700

