%chk=gs_6_reactant_2.chk
%mem=2GB
%nprocshared=2
#P AM1 Freq NoSymm

dipolar_000049 AM1 SPE on relaxed reactant_2 (n=17)

0 1
 C       -0.2253600      -1.4101700      -0.3846400
 C       -1.4642400       0.6925000      -0.3576700
 C       -1.6629300      -0.8386100      -0.1522400
 C        0.7872400       0.3905200       0.5624600
 C        0.6341100      -0.9209300       0.7776200
 C        0.2613300      -0.4816500      -1.5217000
 C        0.0604000       0.8057700      -0.6937200
 F        1.3444000       1.2940000       1.3831900
 H       -2.3637600      -1.2523400      -0.8933700
 H       -2.0610600       1.0649500      -1.2034900
 H       -1.7287600       1.2866900       0.5287700
 H       -2.0432100      -1.0910700       0.8479200
 H        0.3747100       1.7623100      -1.1296900
 H        0.9157900      -1.4918900       1.6625500
 H        1.3115500      -0.6547400      -1.7986200
 H       -0.3749100      -0.5207100      -2.4196100
 H       -0.1922100      -2.4905800      -0.5756600

