%chk=gs_67_reactant_1.chk
%mem=2GB
%nprocshared=2
#P AM1 Freq NoSymm

dipolar_000853 AM1 SPE on relaxed reactant_1 (n=19)

0 1
 C        3.3944100      -1.4773600       0.0325300
 O        2.0883900      -1.0195800       0.4044000
 C        0.1566200       0.2014300       0.0290500
 O        1.9772500       0.1850300      -1.5017600
 C       -0.5416600      -0.2063400       1.3514200
 C       -1.6209200      -1.2586200       1.0075100
 C       -2.5626200      -0.5878400       0.3384800
 C       -0.8142300       0.8723900      -0.6139000
 C       -2.0501900       0.8716700       0.2988100
 O       -1.3767000       0.9543000       1.5647300
 C        1.4744200      -0.1856000      -0.4532400
 F       -0.8280000       1.3787200      -1.8267100
 H        4.0847800      -0.6284000      -0.0788500
 H        3.7286500      -2.1322200       0.8456300
 H        0.1163200      -0.4070100       2.2018100
 H       -1.5514500      -2.3213400       1.2363300
 H        3.3532200      -2.0378800      -0.9129600
 H       -3.4755000      -0.9412400      -0.1385600
 H       -2.7769300       1.6748000       0.1382100

