%chk=gs_65_reactant_2.chk
%mem=2GB
%nprocshared=2
#P AM1 Freq NoSymm

dipolar_000784 AM1 SPE on relaxed reactant_2 (n=11)

0 1
 C       -2.2648400      -0.1574500       0.7615400
 N       -1.6108500       0.9158800       0.0393800
 C       -0.3306500       0.9722200      -0.3764300
 O        0.1359700       1.9381100      -0.9921700
 C        0.5093900      -0.1801100      -0.0648400
 C        1.2802000      -1.0854300       0.1453600
 F        2.0852600      -2.0438700       0.3708900
 H       -2.6582200       0.2030200       1.7246500
 H       -2.1650600       1.7358300      -0.1993300
 H       -3.1020800      -0.5703700       0.1774000
 H       -1.5494200      -0.9643700       0.9599600

