%chk=gs_65_reactant_1.chk
%mem=2GB
%nprocshared=2
#P AM1 Freq NoSymm

dipolar_000784 AM1 SPE on relaxed reactant_1 (n=28)

0 1
 C        0.1671300       1.6726100      -0.6831100
 C       -0.8369200       3.7377400      -1.5018200
 C       -0.0377000       0.2588300      -0.2292800
 O        1.3074300       2.1501400      -0.7660000
 N       -0.9320800       2.3717100      -1.0254700
 C       -1.3133700      -0.3737500       0.1608400
 C        2.1058300      -1.0021500      -0.3614600
 O        3.4504000      -2.2686900       1.0767100
 N        1.0480600      -0.4430500      -0.2394700
 C        3.3045500      -1.2425200       0.4235400
 C       -2.3071400       0.3399700       0.8582800
 C       -3.4977600      -0.2871700       1.2310700
 C       -3.7138200      -1.6339900       0.9261200
 C       -1.5371500      -1.7333600      -0.1332400
 C       -2.7254500      -2.3553900       0.2467700
 C        4.3498300      -0.1687900       0.2711400
 H       -0.3267700       3.7930100      -2.4777200
 H       -1.8492000       4.1461000      -1.6085600
 H       -1.8392500       1.9189500      -1.0150100
 H       -0.7733700      -2.3007300      -0.6695500
 H        4.9859300      -0.4104100      -0.5971600
 H        3.8885800       0.8143600       0.0957000
 H        4.9782200      -0.1525800       1.1730400
 H       -2.1420500       1.3828200       1.1311400
 H       -4.2564700       0.2809700       1.7741700
 H       -4.6460100      -2.1217200       1.2199100
 H       -2.8840100      -3.4091200       0.0058500
 H       -0.2734500       4.3604300      -0.7906000

