%chk=gs_69_reactant_2.chk
%mem=2GB
%nprocshared=2
#P AM1 Freq NoSymm

dipolar_000876 AM1 SPE on relaxed reactant_2 (n=24)

0 1
 C        0.1605600       0.5039800       0.0870300
 O        0.1217600       1.7865400       0.6086500
 C        1.4509600       0.1302600      -0.4847400
 O        1.5001700      -1.0820600      -1.0696600
 C        2.7550100      -1.4577900      -1.6441500
 C       -0.9645500      -0.2841200       0.1926500
 O       -0.9337100      -1.5784200      -0.1116700
 C       -2.1697500      -2.2877800      -0.2844100
 C       -2.6250900       1.4669000       0.4853500
 O       -2.1448800       0.1229100       0.6484000
 O        2.4260100       0.8735600      -0.4500600
 C        0.4976800       1.8577200       1.9815500
 H        1.5275800       1.4926300       2.1313700
 H        3.0451100      -0.7621600      -2.4458000
 H       -2.3180800       1.8700300      -0.4889500
 H        3.5471000      -1.4764700      -0.8807000
 H        2.6090200      -2.4636000      -2.0564500
 H       -0.1885900       1.2675200       2.6134100
 H       -2.7029400      -2.3873100       0.6712900
 H       -1.8847900      -3.2791700      -0.6564100
 H       -2.2644800       2.1157600       1.2929600
 H       -3.7191700       1.3895100       0.5293700
 H       -2.8134700      -1.7823800      -1.0187200
 H        0.4430600       2.9146600       2.2794500

