%chk=gs_68_reactant_2.chk
%mem=2GB
%nprocshared=2
#P AM1 Freq NoSymm

dipolar_000864 AM1 SPE on relaxed reactant_2 (n=13)

0 1
 C       -2.0597500       0.7949200       0.6233800
 C       -0.6764000       1.1147800       0.0283600
 O       -1.6409900      -0.0156900       1.7379500
 C       -0.8863300      -0.9539700       0.9455800
 C       -1.9683500      -1.3831000      -0.0768600
 F       -0.4159300       2.2197000      -0.6513300
 C        0.0717700       0.0272400       0.2239900
 Br       1.7726400      -0.3890500      -0.4254800
 C       -2.7024300      -0.2863400      -0.2813000
 H       -3.5414900      -0.1181500      -0.9549800
 H       -2.6727700       1.6523600       0.9214700
 H       -0.4169500      -1.7339700       1.5542000
 H       -2.0383600      -2.3682200      -0.5362600

