%chk=gs_62_reactant_1.chk
%mem=2GB
%nprocshared=2
#P AM1 Freq NoSymm

dipolar_000759 AM1 SPE on relaxed reactant_1 (n=23)

0 1
 C       -2.1109500       0.3622300       0.1009700
 N       -0.1673200      -0.9521100      -0.1129200
 C        0.7270300       0.0248000      -0.0202700
 O        2.7725300       1.0350000       0.0453500
 N       -1.4794400      -0.8695200      -0.0602900
 C        0.2754900      -2.3566500      -0.2964300
 C        2.1720400      -0.1663600      -0.0850800
 O       -1.5860400       1.4849400       0.1939900
 O        2.8019300      -1.2026100      -0.2299800
 C       -4.4088900       1.2547400       0.3005400
 N       -3.4569900       0.1806300       0.1443100
 C        4.2033500       1.0395800       0.0065400
 H        0.3376500       1.0270300       0.1129400
 H       -3.8645200       2.2017400       0.3944800
 H       -5.0844500       1.3243900      -0.5681000
 H        4.5061300       2.0866200       0.1248700
 H        0.9028600      -2.6536600       0.5506900
 H       -0.6303600      -2.9640700      -0.3468100
 H        0.8574800      -2.4369800      -1.2205900
 H       -3.7932600      -0.7720400       0.0572000
 H        4.6164100       0.4315900       0.8252100
 H        4.5676700       0.6467200      -0.9543600
 H       -5.0266900       1.1149200       1.2027400

