%chk=gs_71_reactant_1.chk
%mem=2GB
%nprocshared=2
#P AM1 Freq NoSymm

dipolar_000915 AM1 SPE on relaxed reactant_1 (n=14)

0 1
 C        0.5609000      -0.0976000       0.0478800
 C        0.0514800       1.2118300       0.1675400
 C       -1.3186800       1.4444300       0.0501700
 C       -2.1968100       0.3813300      -0.1868700
 C       -1.6990300      -0.9207000      -0.3067700
 C       -0.3305300      -1.1637700      -0.1909800
 C        1.9676900      -0.3416200       0.1674100
 C        3.1611300      -0.5479500       0.2683500
 H       -1.7037700       2.4623100       0.1444200
 H       -3.2693200       0.5676900      -0.2781700
 H       -2.3817500      -1.7531000      -0.4918600
 H        0.0602900      -2.1787500      -0.2842400
 H        4.2184400      -0.7320400       0.3579500
 H        0.7387300       2.0395400       0.3524300

