%chk=gs_74_reactant_2.chk
%mem=2GB
%nprocshared=2
#P AM1 Freq NoSymm

dipolar_000983 AM1 SPE on relaxed reactant_2 (n=21)

0 1
 C        0.2596100       0.2801200      -0.0690100
 N       -2.1950700      -0.2486000      -0.2997800
 C        0.8102700      -0.9552600       0.3724500
 C       -1.0987100       0.5378000      -0.4492500
 C        1.1729100       1.3708600      -0.1899800
 C       -3.4214500       0.3171700      -0.9110600
 C       -2.3437300      -1.4125400       0.3323500
 C        2.5196600       1.2424100       0.1204200
 C        2.1705500      -1.0745700       0.6733900
 C        3.0381800       0.0140400       0.5632000
 H        0.7896300       2.3345500      -0.5366100
 H       -1.3113600       1.4976200      -0.9171400
 H        3.1790000       2.1087600       0.0182700
 H       -1.5337100      -1.8329600       0.9163900
 H        0.1942300      -1.8477300       0.4455600
 H        2.5536600      -2.0450600       1.0011000
 H       -3.7251900       1.2095500      -0.3475500
 H       -3.2132800       0.6001400      -1.9501700
 H       -4.2233800      -0.4268400      -0.8839000
 H        4.0968100      -0.0871900       0.8124000
 H       -3.3297400      -1.8695200       0.3344600

