%chk=gs_76_reactant_2.chk
%mem=2GB
%nprocshared=2
#P AM1 Freq NoSymm

dipolar_000991 AM1 SPE on relaxed reactant_2 (n=8)

0 1
 C       -0.6060100       0.4087500      -0.1590100
 O       -1.8067300       0.8579700      -0.3570700
 C       -2.8873100      -0.0751100      -0.1083800
 C        0.5305700       0.0277200       0.0157300
 Cl       2.0883500      -0.4848600       0.2508400
 H       -3.8130200       0.4710500      -0.3234100
 H       -2.8674200      -0.3973200       0.9430700
 H       -2.7912600      -0.9441200      -0.7757900

