%chk=gs_78_reactant_2.chk
%mem=2GB
%nprocshared=2
#P AM1 Freq NoSymm

dipolar_001090 AM1 SPE on relaxed reactant_2 (n=18)

0 1
 C        2.4663500      -0.5893600       0.1757200
 O        1.9239200       0.6882000       0.4900300
 C       -0.7864100      -2.1496700       0.0846900
 C        0.6649700       0.9872500       0.0089700
 O       -1.6472400       0.4385100      -0.3881100
 C       -1.8128000       1.5835300      -1.2112500
 O       -0.3783500      -0.9815300       0.8082100
 C       -0.4145900       0.1863900       0.1237800
 H        2.0597300      -1.3837500       0.8209600
 H       -0.1757800      -2.2741800      -0.8250500
 H        2.2709200      -0.8532400      -0.8785500
 H       -1.8500200      -2.0977600      -0.1913000
 H       -1.6519700       2.5128900      -0.6395600
 H        0.5933200       1.9827700      -0.4302400
 H       -2.8464500       1.5591600      -1.5793000
 H       -0.6249800      -3.0037600       0.7547200
 H        3.5528200      -0.5227300       0.3348900
 H       -1.1141500       1.5599700      -2.0649500

