%chk=gs_77_reactant_1.chk
%mem=2GB
%nprocshared=2
#P AM1 Freq NoSymm

dipolar_001058 AM1 SPE on relaxed reactant_1 (n=21)

0 1
 C       -1.3532800      -1.5066100      -0.6239500
 C       -0.4787800      -1.4203000       0.6731700
 N        1.7878200       2.5701600      -0.8712100
 C        0.7641400      -0.6526800       0.2656200
 C        2.0793300      -1.2807400      -0.0103700
 C        0.3692100       0.6360500       0.0835900
 C       -1.1349200       0.7113600       0.3515500
 C       -1.2490600      -0.3458100       1.4682600
 C       -1.8161000      -0.0364900      -0.8355200
 C        1.1536900       1.6872700      -0.4456000
 H       -0.2900600      -2.3859400       1.1586800
 H        2.4617900      -1.7871800       0.8920600
 H       -0.7396900      -0.0487300       2.3967200
 H        2.8265000      -0.5514200      -0.3550600
 H       -1.5273800       1.7149400       0.5541700
 H       -2.2889200      -0.6325900       1.6871500
 H       -2.2070700      -2.1773700      -0.4483200
 H       -2.9100300       0.0545400      -0.7618200
 H       -1.5068200       0.3774500      -1.8056000
 H       -0.7807800      -1.9063000      -1.4731800
 H        1.9676200      -2.0630600      -0.7813900

