%chk=gs_71_reactant_2.chk
%mem=2GB
%nprocshared=2
#P AM1 Freq NoSymm

dipolar_000915 AM1 SPE on relaxed reactant_2 (n=34)

0 1
 C        2.3438800      -0.3436100       0.0094700
 N        0.9435500       2.1981600      -0.8405000
 C        0.9797400      -0.5823200       0.3296500
 O       -1.1687000       1.8202600      -1.5722900
 C       -0.1397800       0.0993700      -0.2982000
 C       -0.1714800       1.3905300      -0.9326600
 C       -2.4779900       1.1352400       0.9930200
 C        0.9001700       3.5650400      -1.3131100
 C        0.7333600      -1.5773600       1.3161600
 C        3.3760700      -1.0298600       0.6488900
 C        1.7698300      -2.2695400       1.9399100
 C       -1.4135100      -1.9033900      -1.0072300
 C       -3.8059500      -0.7450500      -0.1261900
 C       -2.4931200      -0.0959000       0.1668700
 N       -1.3796500      -0.6096100      -0.3029600
 C        3.1061200      -1.9996700       1.6215200
 H        2.5993600       0.3692800      -0.7735300
 H        4.4102400      -0.8126500       0.3672700
 H       -0.3884000      -2.2681600      -1.1168800
 H        1.6209200       1.9853900      -0.1180000
 H       -2.6520300       2.0131300       0.3466100
 H       -1.5013500       1.2773400       1.4775600
 H        0.1830500       4.1953200      -0.7547200
 H        1.9001900       4.0083800      -1.2109500
 H       -0.2966200      -1.7954700       1.6062700
 H       -3.8976400      -1.0190000      -1.1878800
 H       -2.0085600      -2.6426000      -0.4564800
 H       -4.6305500      -0.0741600       0.1441900
 H       -1.8477400      -1.7584300      -2.0080000
 H       -3.9146000      -1.6731800       0.4617700
 H        0.6135800       3.6046900      -2.3745000
 H       -3.2873000       1.0931200       1.7363700
 H        1.5294700      -3.0228300       2.6954000
 H        3.9185300      -2.5361000       2.1167700

