%chk=gs_7_reactant_1.chk
%mem=2GB
%nprocshared=2
#P AM1 Freq NoSymm

dipolar_000050 AM1 SPE on relaxed reactant_1 (n=17)

0 1
 C       -0.2968800       0.5786100       0.8433200
 F        1.4076700       1.7714800      -0.5250100
 C        0.8242500       0.6175400      -0.1667700
 C       -1.6103700       0.3979900       0.0111400
 C       -0.0494000      -1.4772300      -0.0510200
 C       -0.0962100      -0.8599600       1.3663100
 C        0.9949000      -0.5882800      -0.7204400
 C       -1.4429600      -1.0250000      -0.5995700
 H       -0.3108700       1.4017400       1.5686800
 H        1.6223400      -0.8515400      -1.5721600
 H       -1.7199600       1.1854700      -0.7482600
 H        0.1357100      -2.5571200      -0.1176900
 H       -1.4659200      -1.0250800      -1.6987500
 H        0.8440400      -0.9876400       1.9223700
 H       -0.9422900      -1.2208200       1.9717100
 H       -2.2325600      -1.7055900      -0.2461100
 H       -2.4840500       0.4486700       0.6778000

