%chk=gs_77_reactant_2.chk
%mem=2GB
%nprocshared=2
#P AM1 Freq NoSymm

dipolar_001058 AM1 SPE on relaxed reactant_2 (n=24)

0 1
 C       -1.7125400      -0.5057000       0.2947100
 N       -1.7038900      -1.7925600       0.6824200
 C        0.9370200      -0.5502500      -0.0012500
 O       -2.7485100       0.1440900       0.1286200
 C       -0.3624900       0.1472300       0.1132700
 C        1.0575200      -1.7560900      -0.7169700
 C        2.0837200       0.0162000       0.5864900
 C        3.3196300      -0.6187400       0.4741100
 C        2.2985200      -2.3865100      -0.8247000
 C        3.4308400      -1.8236800      -0.2288600
 C       -0.5040900       2.6340900       0.2517100
 N       -0.4013000       1.4274700       0.1040100
 C       -2.9388200      -2.5158500       0.9185200
 C       -0.7031200       3.6617400      -0.6718800
 N       -0.8616400       4.6259300      -1.3147600
 H       -0.8204400      -2.2556300       0.8659000
 H       -3.4831200      -2.1112400       1.7874600
 H        1.9995200       0.9542800       1.1393600
 H       -2.7002500      -3.5692000       1.1080200
 H        4.2006300      -0.1727800       0.9410600
 H        4.3997300      -2.3205500      -0.3151900
 H        2.3802400      -3.3196000      -1.3864900
 H        0.1865700      -2.1919700      -1.2077700
 H       -3.6012800      -2.4501800       0.0423900

