%chk=gs_76_reactant_1.chk
%mem=2GB
%nprocshared=2
#P AM1 Freq NoSymm

dipolar_000991 AM1 SPE on relaxed reactant_1 (n=31)

0 1
 C        0.7293900       0.4084000       1.5683500
 N        3.3290600       1.5085900       1.0495900
 C        2.5806500       1.1444400      -0.0058600
 O        2.9637900       1.2665800      -1.1823200
 C        1.2421200       0.5724900       0.2665800
 C        4.6524600       2.0760100       0.8790700
 N        0.5672100       0.2378300      -0.8493300
 N        0.3896500       0.3140300       2.6827000
 C       -0.6150300      -0.2943000      -1.0978300
 C       -1.4011000      -1.9498000       0.5971700
 C       -2.2229600      -2.2996400       1.6699700
 O       -0.0840200      -0.1017000      -3.3755200
 C       -1.5270800      -0.6864800      -0.0015400
 C       -2.4919900       0.2157100       0.4724300
 C       -3.3109200      -0.1380200       1.5464400
 C       -3.1744200      -1.3931000       2.1482900
 C       -0.9109600      -0.4586900      -2.5332300
 C       -2.2314100      -1.0696100      -2.8978700
 H        2.9649000       1.3871300       1.9889400
 H        4.6155000       3.0079000       0.2929200
 H       -2.5856400       1.1982400       0.0050300
 H        1.1188400       0.4552200      -1.7030600
 H       -0.6479400      -2.6482000       0.2261200
 H       -2.3214300      -2.0706800      -2.4466600
 H       -2.1171300      -3.2811400       2.1375100
 H       -3.0546000      -0.4633800      -2.4872900
 H       -2.3232700      -1.1387900      -3.9890600
 H       -4.0549700       0.5700600       1.9181600
 H       -3.8129000      -1.6662200       2.9916900
 H        5.0707400       2.2973900       1.8680900
 H        5.3241100       1.3746600       0.3590000

