%chk=gs_72_reactant_1.chk
%mem=2GB
%nprocshared=2
#P AM1 Freq NoSymm

dipolar_000930 AM1 SPE on relaxed reactant_1 (n=17)

0 1
 C       -1.4096500       0.0539300       0.4476900
 N       -0.3210900       0.7583900       0.1559900
 C       -0.3976000       2.2250900       0.3169200
 C       -2.6073100       0.6704800       1.0988900
 C        0.9016600       0.2167900      -0.2248400
 N        2.6785000       1.6102700      -1.4689700
 C        1.2631600      -1.1034400       0.1062500
 C       -1.4826000      -1.3184200       0.0892100
 N       -1.6489300      -2.4257200      -0.2340500
 C        1.8550400       1.0022100      -0.9046500
 N        1.6207800      -2.1770500       0.3991300
 H       -3.3214700      -0.1141200       1.3754900
 H       -2.3231000       1.2298900       2.0036200
 H       -3.1117800       1.3694700       0.4110100
 H       -0.4343200       2.4600400       1.3892900
 H       -1.2975800       2.6027700      -0.1797800
 H        0.4903000       2.6848600      -0.1237000

