%chk=gs_73_reactant_2.chk
%mem=2GB
%nprocshared=2
#P AM1 Freq NoSymm

dipolar_000975 AM1 SPE on relaxed reactant_2 (n=12)

0 1
 C        1.5873900      -1.7367200      -0.0640000
 C       -0.6573400      -0.5615700       0.1229600
 Cl       1.5373700       0.9708100      -0.2624600
 C        0.6774800      -0.5493300      -0.0417500
 C       -1.5235800      -1.7656000       0.3191400
 Cl      -1.5722100       0.9424200       0.1230000
 H       -2.2826300      -1.8215100      -0.4780400
 H        2.1246800      -1.7863600      -1.0250800
 H       -0.9424900      -2.6954700       0.3126700
 H       -2.0615000      -1.6951700       1.2785800
 H        2.3461800      -1.6489000       0.7305400
 H        1.0405600      -2.6764000       0.0787300

