%chk=gs_72_reactant_2.chk
%mem=2GB
%nprocshared=2
#P AM1 Freq NoSymm

dipolar_000930 AM1 SPE on relaxed reactant_2 (n=23)

0 1
 C       -2.0209300      -1.0579400      -0.9029400
 C       -0.7779700       0.7613900       1.5819000
 C        0.7558800       0.5844800       1.2364900
 C        0.8237400      -0.5707400       0.3254900
 N        2.0792900       0.1637100       3.4763700
 C        1.5152000       0.3579300       2.4834100
 N        1.6393300       2.7621200       0.0425100
 C        1.2760300       1.7998200       0.5753900
 C       -1.6988200       1.2133800       0.4377200
 C       -1.7785400       0.4679700      -0.9141100
 C       -0.7524100      -1.8997900      -1.2797200
 C        0.3238300      -1.3565300      -0.4472800
 C       -0.4369600      -1.7937700      -2.7105900
 N       -0.2128100      -1.6964400      -3.8444600
 H       -0.8828700       0.6963700      -1.5138400
 H       -1.0906800      -0.2087400       1.9928800
 H       -1.4728700       2.2676200       0.2083600
 H       -0.8440600       1.5037100       2.3915200
 H       -2.6105800       0.9405800      -1.4580500
 H       -2.8188000      -1.3339500      -1.6076300
 H       -2.3375500      -1.4019900       0.0930300
 H       -0.9361400      -2.9656100      -1.0663800
 H       -2.7056800       1.2180800       0.8877700

