%chk=gs_88_reactant_1.chk
%mem=2GB
%nprocshared=2
#P AM1 Freq NoSymm

dipolar_001197 AM1 SPE on relaxed reactant_1 (n=19)

0 1
 N       -1.0501200       0.9257800      -0.1655200
 C       -1.4308400      -0.2771300       0.4034500
 C       -2.8094600      -0.7098400       0.0062400
 O       -0.7361400      -0.9161200       1.1930200
 N        0.1997700       1.2950400      -0.1504900
 C        0.3835100       2.7597900      -0.2377700
 N        1.2693700       0.6105200      -0.0830200
 C        1.2747100      -0.7838000      -0.3090700
 C        2.1843400      -1.5309400       0.6115300
 O        0.7249300      -1.2616600      -1.2861200
 H       -2.7307100      -1.1999700      -0.9803600
 H       -3.1993000      -1.4383200       0.7288900
 H       -3.4905200       0.1452400      -0.0975600
 H       -0.1166200       3.1049700      -1.1508900
 H       -0.0960500       3.2127800       0.6388700
 H        1.4552900       2.9736400      -0.2660300
 H        3.2276100      -1.2944200       0.3431400
 H        2.0187200      -2.6098700       0.5024900
 H        2.0261400      -1.2130600       1.6515700

