%chk=gs_84_reactant_1.chk
%mem=2GB
%nprocshared=2
#P AM1 Freq NoSymm

dipolar_001172 AM1 SPE on relaxed reactant_1 (n=14)

0 1
 C        0.2321400      -0.4335100      -0.6026200
 O        1.1451200       0.3637400       0.0472600
 C       -1.0709800      -0.3447500      -0.0513800
 O        0.5651800      -1.1354300      -1.5626200
 C        2.4833400       0.3316200      -0.4406400
 N       -1.3166600       0.4693400       1.0137500
 C       -2.4206500       0.7043700       1.6721500
 H        2.5336200       0.6613600      -1.4900200
 H       -0.4824500       0.9725600       1.3363100
 H       -1.8949300      -0.9215800      -0.4664300
 H        2.9111000      -0.6802900      -0.3655500
 H        3.0573900       1.0220400       0.1903900
 H       -2.3874300       1.4043700       2.5050400
 H       -3.3400100       0.1977000       1.3750200

