%chk=gs_88_reactant_2.chk
%mem=2GB
%nprocshared=2
#P AM1 Freq NoSymm

dipolar_001197 AM1 SPE on relaxed reactant_2 (n=24)

0 1
 C        1.9927700      -0.7057300       0.1435700
 O        1.5118600      -1.7897100       0.4192900
 C        1.2127800       0.5413800      -0.0415800
 O        3.2970800      -0.4904600      -0.0263700
 C       -0.1276900       0.5604800       0.0145900
 C       -0.8526400       1.8542000      -0.1829500
 C       -0.9625400      -0.6552700       0.3181300
 O       -1.2138400      -1.3669400      -0.7743800
 O       -1.3787800      -0.9107000       1.4263600
 C        4.1639600      -1.6244300       0.1312200
 C       -2.9958100       2.8405000      -0.3046700
 O       -2.1721300       1.6764500      -0.1283800
 O       -0.3122200       2.9226400      -0.3759600
 C       -1.9749700      -2.5733700      -0.5928000
 H        4.0746800      -2.0336700       1.1478800
 H        3.9093100      -2.4041300      -0.6010400
 H        5.1802900      -1.2540500      -0.0432900
 H        1.7614300       1.4656600      -0.2303700
 H       -1.4239600      -3.2688900       0.0565600
 H       -2.1000800      -3.0035300      -1.5927200
 H       -2.9538500      -2.3471000      -0.1471900
 H       -4.0309600       2.4905100      -0.2265200
 H       -2.8145100       3.2871300      -1.2926400
 H       -2.7799200       3.5795800       0.4798500

