%chk=gs_93_reactant_2.chk
%mem=2GB
%nprocshared=2
#P AM1 Freq NoSymm

dipolar_001250 AM1 SPE on relaxed reactant_2 (n=20)

0 1
 C       -0.1894800       0.0772400       0.1747500
 C       -0.1041000       0.8532100       1.3870800
 C        1.2666200       1.3485800       1.8107400
 O       -1.2704500      -1.1429000      -1.5108100
 C       -1.3468100      -0.4919700      -0.4468300
 C        1.4373100      -0.6920800      -1.4599800
 O       -1.0983800       1.1238100       2.0790800
 O        1.0634500      -0.0905800      -0.4091400
 C        2.8638100      -0.6834300      -1.8008200
 C       -2.6975100      -0.2972000       0.2037300
 H        1.1570600       1.9169600       2.7433800
 H       -2.9384100       0.7703100       0.3116300
 H       -2.7167300      -0.7272600       1.2160000
 H        1.9611900       0.5093600       1.9709500
 H        3.2201600      -1.7268100      -1.8735700
 H        0.6739300      -1.1904700      -2.0631800
 H        2.9883200      -0.2518500      -2.8102300
 H        3.4592500      -0.1247200      -1.0673100
 H        1.7118400       1.9936700       1.0372800
 H       -3.4505100      -0.7909800      -0.4258300

