%chk=gs_98_reactant_1.chk
%mem=2GB
%nprocshared=2
#P AM1 Freq NoSymm

dipolar_001298 AM1 SPE on relaxed reactant_1 (n=22)

0 1
 C       -3.5645800      -0.6984900      -0.3986100
 O       -2.1751300      -0.7546000      -0.0578100
 C        0.5465000      -1.1055300       0.7412100
 O        1.6068100      -0.5408400       1.5359200
 C       -0.0734600       0.1969000       0.1763400
 C        0.9760300       1.0255700      -0.0183300
 C       -1.4699100       0.3863400      -0.1960000
 C        1.0966000       2.3699100      -0.6231100
 O       -1.9770100       1.4262400      -0.5909100
 C        2.1989000       0.1992100       0.4548700
 C        2.4012300      -0.9239000      -0.5859400
 C        1.3659900      -1.7485200      -0.3995600
 H       -0.1115600      -1.7550700       1.3258500
 H        1.0816300      -2.6464400      -0.9472400
 H       -3.9610300      -1.7056900      -0.2241900
 H        0.1287600       2.7618400      -0.9568100
 H       -3.6947900      -0.4185900      -1.4544800
 H       -4.0907000       0.0303000       0.2356200
 H        1.5462100       3.0732800       0.0989900
 H        3.0799000       0.7706200       0.7672700
 H        1.7911400       2.3253200      -1.4810300
 H        3.1976300      -0.9550100      -1.3285600

