%chk=gs_92_reactant_1.chk
%mem=2GB
%nprocshared=2
#P AM1 Freq NoSymm

dipolar_001243 AM1 SPE on relaxed reactant_1 (n=24)

0 1
 C        2.0518700      -1.8796400      -0.3104400
 O        0.7234500      -1.9623200      -0.8306500
 C       -0.1196200      -0.9340800      -0.7168600
 C       -0.0436300       0.3279800      -0.2061700
 C        1.0317200       1.0286100       0.5329800
 C       -2.2820200       0.0849200       0.8457200
 C       -1.4773900       0.8707900      -0.2349000
 C       -2.0027500       0.2175300      -1.5268000
 C       -2.3263500      -1.3524200       0.2501600
 C       -1.5611300      -1.1937300      -1.1047600
 F        1.3316100       0.4645100       1.7396800
 F        2.2096200       1.0953500      -0.1348000
 F        0.6846600       2.3039600       0.8089800
 H        2.6309300      -1.1109600      -0.8407000
 H        2.0340900      -1.6576300       0.7663700
 H        2.5069500      -2.8639900      -0.4752500
 H       -1.5543700       1.9613900      -0.1600300
 H       -1.7860500       0.1287400       1.8256800
 H       -3.2934200       0.5044900       0.9569200
 H       -1.8518300      -2.1060700       0.8948100
 H       -3.0928000       0.3086800      -1.6489200
 H       -3.3587000      -1.6776500       0.0550600
 H       -1.4911900       0.5790500      -2.4305800
 H       -1.6929100      -2.0225500      -1.8110400

