%chk=gs_94_reactant_1.chk
%mem=2GB
%nprocshared=2
#P AM1 Freq NoSymm

dipolar_001261 AM1 SPE on relaxed reactant_1 (n=28)

0 1
 C        1.0193000       0.8940300       1.4871500
 N        2.6906900      -0.0394900      -0.7395500
 C        0.4785000       0.1653300       0.2880900
 O        2.1406000       1.3915800       1.4551800
 C       -0.8389000      -0.0451800       0.0719400
 C        0.2066100       0.9721800       2.7502600
 C       -2.0027100       0.4384400       0.9082200
 O        0.9399900      -1.1409200      -1.6485500
 C       -1.3816900      -0.7863700      -1.1469900
 C       -1.6406600      -2.2515900      -0.9506800
 C        1.4030100      -0.3898700      -0.7734200
 O       -2.5482500      -0.3291500       1.6789300
 C       -2.4802900       1.8236300       0.6037600
 C        3.6320300      -0.5148200      -1.7329600
 O       -1.7898200      -0.1411800      -2.0977100
 H        2.9718900       0.6122200      -0.0066800
 H       -1.6627300       2.5478600       0.7424800
 H        3.3309600      -0.2071400      -2.7471300
 H        4.6205900      -0.0944700      -1.5129000
 H        0.8668300       1.2946600       3.5653900
 H       -0.2607000       0.0086500       2.9921200
 H       -0.5934400       1.7219800       2.6468600
 H       -0.8049500      -2.7455000      -0.4395200
 H       -2.5346700      -2.3471800      -0.3103400
 H       -1.8433500      -2.7255900      -1.9211100
 H       -2.7553900       1.8617500      -0.4640100
 H       -3.3438200       2.0786600       1.2320900
 H        3.7013300      -1.6139100      -1.7214000

