%chk=gs_97_reactant_2.chk
%mem=2GB
%nprocshared=2
#P AM1 Freq NoSymm

dipolar_001295 AM1 SPE on relaxed reactant_2 (n=15)

0 1
 C       -2.2276800       0.2978000       0.2071700
 O        1.0932100       0.6507000       0.1072300
 C       -0.2768900      -1.1914300      -0.3004700
 O        2.0751600      -1.3170300      -0.4679000
 C        1.0445500      -0.6757500      -0.2397200
 N       -1.3355800      -0.4109700      -0.0326400
 C        2.3906600       1.2337000       0.1869300
 C       -3.3315800       1.1797500       0.5081000
 H       -3.9122800       1.4200100      -0.3966400
 H       -2.9166600       2.1127000       0.9233700
 H       -0.4652500      -2.2306500      -0.5640900
 H        2.9135300       1.1840700      -0.7810800
 H        3.0095400       0.7338200       0.9485700
 H        2.2385000       2.2836700       0.4687300
 H       -3.9903200       0.7263100       1.2657900

