23
dipolar_001450 reactant_1 (FRAG1 relaxed, reordered to d) type=dipole
C       -2.2822500       0.6496500       1.3414100
N       -0.7117000      -0.8316600       0.1948100
C       -0.9887300       0.3823700       0.8671100
O        0.1943900       0.9497000      -2.0109900
C        0.9060300       0.2304300      -1.3054200
C        3.0571000      -0.2649300      -0.1589400
C        0.6302900      -2.3282400      -1.1987000
C        0.2638400      -0.9840800      -0.6659100
N        2.2288900       0.3785100      -1.1621100
C        0.0234900       1.3266600       1.0883000
N        0.8662100       2.1126500       1.2987000
N       -3.3488900       0.9028100       1.7551100
C       -1.5317300      -2.0032100       0.5617200
H       -2.3924800      -1.6719900       1.1487200
H       -1.8778000      -2.5110800      -0.3451500
H       -0.9250300      -2.6921000       1.1649800
H        2.4748100      -1.0109400       0.3965200
H        2.6258700       1.1726800      -1.6615100
H        3.4235800       0.4781400       0.5659900
H        1.5577300      -2.2675900      -1.7805300
H        0.7608900      -3.0613100      -0.3877000
H       -0.1660500      -2.7064900      -1.8633100
H        3.9197400      -0.7660300      -0.6221400
