23
dipolar_001450 reactant_1 @ TS geom
C       -1.1701000       4.4418500       0.9840600
N       -1.0103400       3.1156500       0.4286100
C       -1.2512200       2.8430500      -0.8630400
O       -1.6047300       3.7090100      -1.6625600
C       -1.0040900       1.3576900      -1.3006100
C       -0.5705100       1.4338500      -2.7847200
C       -1.9869300      -0.7602000      -1.4687100
C       -2.8042400      -1.7343600      -0.7597400
N       -3.3551400      -2.5679700      -0.1669200
C       -2.0044900      -1.0933500      -2.8973800
N       -1.9705000      -1.4372400      -4.0061900
N       -2.2374300       0.5906800      -1.1205600
C       -3.0903300       0.8608800       0.0410800
H       -0.6097300       5.1686700       0.3774800
H       -2.2165000       4.7504500       1.0270500
H       -0.7484900       4.4236100       1.9976800
H       -0.8797800       2.3259500       1.0350400
H        0.2490900       2.1400500      -2.8304800
H       -0.2205800       0.4597700      -3.1199600
H       -1.3616100       1.7784400      -3.4984200
H       -4.0254900       0.3035400      -0.0605600
H       -2.6046100       0.5677700       0.9976600
H       -3.3507100       1.9279100       0.0869100
