42
dipolar_001450 TS complex (tags stripped)
C       -1.1701000       4.4418500       0.9840600
N       -1.0103400       3.1156500       0.4286100
C       -1.2512200       2.8430500      -0.8630400
O       -1.6047300       3.7090100      -1.6625600
C       -1.0040900       1.3576900      -1.3006100
C       -0.5705100       1.4338500      -2.7847200
C        0.2969600       0.3709300      -0.5617900
C        0.4749300       0.1817200       0.9982700
O       -0.5728600      -0.7712500       1.2752100
C       -0.0776800      -1.8004800       0.4060200
C        1.3633900      -1.9268500       0.9432800
Cl       2.2300400      -3.3940400       0.9642300
C        1.7256300      -0.6835900       1.3242800
C        3.0032600      -0.2235100       1.8936500
O        3.9187600      -0.9336700       2.2583500
O        3.0345300       1.1181700       1.9573800
C        4.2410300       1.7158200       2.4508700
C       -0.0542000      -1.0328800      -0.9308600
C       -1.9869300      -0.7602000      -1.4687100
C       -2.8042400      -1.7343600      -0.7597400
N       -3.3551400      -2.5679700      -0.1669200
C       -2.0044900      -1.0933500      -2.8973800
N       -1.9705000      -1.4372400      -4.0061900
N       -2.2374300       0.5906800      -1.1205600
C       -3.0903300       0.8608800       0.0410800
H       -0.6097300       5.1686700       0.3774800
H       -2.2165000       4.7504500       1.0270500
H       -0.7484900       4.4236100       1.9976800
H       -0.8797800       2.3259500       1.0350400
H        0.2490900       2.1400500      -2.8304800
H       -0.2205800       0.4597700      -3.1199600
H       -1.3616100       1.7784400      -3.4984200
H        1.2240100       0.8479700      -1.0513400
H        0.4026300       1.0692300       1.6195500
H       -0.6689600      -2.7088900       0.4190300
H        5.0963800       1.4382100       1.8138800
H        4.0750200       2.7993300       2.4046100
H        4.4401600       1.4037100       3.4833500
H        0.4046700      -1.5361000      -1.8321900
H       -4.0254900       0.3035400      -0.0605600
H       -2.6046100       0.5677700       0.9976600
H       -3.3507100       1.9279100       0.0869100
