29
dipolar_001177 reactant_1 (FRAG1 relaxed, reordered to d) type=dipolarophile
C        4.0151200      -1.2866600      -1.4206400
C        2.5126400      -1.5120200      -1.6077700
C        1.9583400      -0.7902200      -2.8688300
C        0.4216200      -0.7134000      -2.9891100
C       -0.2882000       0.4977600      -2.3167600
C       -1.2014700       0.2340700      -1.1024000
C       -0.5144700       0.1221500       0.3043200
C       -0.2598800       1.5274000       0.9022600
F       -1.4045100       2.1923100       1.1182700
F       -2.6565400      -0.1494000       1.3454700
F        0.4832200       2.2723900       0.0714200
C       -1.4340400      -0.6901000       1.2476600
F       -0.9321900      -0.7836300       2.4876000
F        0.3964000       1.4657900       2.0697100
F       -1.5841000      -1.9402300       0.7861700
C        0.7584000      -0.5734700       0.1229200
C        1.6827400      -1.0516500      -0.4979300
H        4.2334500      -0.2177300      -1.2700600
H        2.3739000       0.2318900      -2.8911600
H        4.5605800      -1.6266600      -2.3142500
H        4.3969400      -1.8432100      -0.5514100
H        2.3710900      -1.3149100      -3.7457000
H        0.1934700      -0.6656400      -4.0652000
H       -0.0255600      -1.6590200      -2.6373300
H        2.3291400      -2.5950200      -1.7242400
H       -1.7424400      -0.7080900      -1.2694800
H       -0.9502400       0.9517000      -3.0701700
H       -1.9630800       1.0244300      -1.0328100
H        0.4498600       1.2752700      -2.0732600
