17
dipolar_001177 reactant_2 (FRAG2 relaxed, reordered to d) type=dipole
C       -0.9787300      -0.2748800      -0.0672700
C       -1.7532700      -1.5280900       0.1835200
N        0.3512400      -0.2877600       0.0671600
C        1.2622700       0.7091000       0.0713400
C        2.7183600       0.3838400      -0.0035600
C       -1.6338800       1.0462500      -0.2532200
H       -2.5127500      -1.7053100      -0.5997900
H       -1.0913500      -2.4100200       0.2087600
H       -2.3056100      -1.5108800       1.1468700
H        0.7528600      -1.2178500       0.2090200
H       -1.2122600       1.5985400      -1.1181900
H        2.9245000      -0.6129600       0.4264000
H       -1.4859200       1.7158800       0.6235100
H        0.8956900       1.7171600      -0.1223200
H        3.3258600       1.1111700       0.5627900
H        3.1350100       0.3725900      -1.0350200
H       -2.7162400       0.9342000      -0.4108900
