21
dipolar_001520 reactant_1 (FRAG1 relaxed, reordered to d) type=dipolarophile
C        2.6414100       1.9107900       0.6844500
C        1.9449200       0.5979600       0.4718500
O        2.4072100      -0.4688200       0.8551200
C        0.6449700       0.6540200      -0.2348300
C        0.0475900       1.8874400      -0.9687900
C       -1.0669200       2.4536200      -0.0597600
C       -2.0398000       1.5400800      -0.1007000
C       -1.5016600       0.4336500      -1.0385000
O       -0.7385800       1.2166700      -1.9666100
C       -0.3420000      -0.2579300      -0.2822900
C       -0.4460100      -1.6088800       0.3501900
F        0.3815900      -2.5040800      -0.2156000
F       -1.6974800      -2.0934300       0.2211700
F       -0.1724400      -1.5861700       1.6662500
H        2.9401300       2.3292400      -0.2914300
H        1.9525800       2.6386700       1.1442000
H        3.5287800       1.7729900       1.3151000
H        0.7593700       2.5947000      -1.4042800
H       -0.9954900       3.3782500       0.5112400
H       -2.9902800       1.4983100       0.4291400
H       -2.2285600      -0.2191600      -1.5307600
