27
dipolar_001520 reactant_2 @ TS geom
C        1.5171600      -0.9359900      -0.2282500
C        1.7246900      -0.5767300       1.2140800
C        2.4482100      -0.3910300      -1.2340800
C        3.2907900      -1.2087100      -2.0264300
C        4.1924400      -0.6483200      -2.9342000
C        4.2897800       0.7439600      -3.0683500
C        3.4777000       1.5717500      -2.2759600
C        2.5741400       1.0134200      -1.3713700
N        0.6710100      -1.9566700      -0.5091000
C        0.5261400      -2.4117400      -1.9022700
C       -0.1190300      -2.5650200       0.4159900
C       -0.9357400      -3.7792000       0.1105700
H        0.8336800      -0.4937900       1.8521600
H        2.3031200       0.3586700       1.3272300
H        2.3504100      -1.3864600       1.6787400
H        3.2707300      -2.2559000      -1.7746000
H        4.8725700      -1.3049300      -3.3935600
H        4.9804300       1.1642900      -3.7597400
H        3.4522500       2.6659600      -2.4713700
H        1.8228700       1.7050300      -0.8700800
H        0.6943600      -1.5348700      -2.5794400
H        1.2175900      -3.1704100      -2.0731900
H       -0.5047600      -2.7465900      -2.0702300
H        0.0823200      -2.3194100       1.4600000
H       -1.7924800      -3.5700000      -0.5935500
H       -1.4031400      -4.1237800       1.0436700
H       -0.3534600      -4.5691200      -0.3154900
