21
dipolar_000732 reactant_2 (FRAG2 relaxed, reordered to d) type=dipolarophile
C       -1.9282800      -0.6826600      -0.5952500
C       -1.3272400      -1.0673100       0.7899600
C        0.7120800       0.1242100       0.1222300
C        0.2242600       0.4543300      -1.0929700
C       -1.2662900       0.7045300      -0.8824500
C       -0.4192600       0.1596500       1.1299600
C       -1.2623500       1.3085800       0.5400800
O        1.9277200      -0.3236500       0.5079700
C        2.8918800      -0.4734900      -0.5261100
H       -2.1132800      -1.1776000       1.5521700
H       -0.7486300      -2.0023100       0.7671600
H        2.5517600      -1.2053800      -1.2784300
H       -0.1064200       0.2282000       2.1798900
H        3.0840500       0.4900400      -1.0284100
H        0.7245200       0.3926400      -2.0589000
H       -1.7658100       1.2880500      -1.6675800
H       -1.6930600      -1.4140200      -1.3819300
H        3.8165600      -0.8317300      -0.0552900
H       -0.7563400       2.2840000       0.5916100
H       -2.2655000       1.3834600       0.9892400
H       -3.0242500      -0.5877400      -0.5411600
