14
dipolar_001545 reactant_2 @ TS geom
C        2.0426000       0.5505000       0.3331700
C        2.9988900      -0.5860100      -0.1325600
C        3.6108900      -1.2608200       1.1077100
C        2.5911300      -1.9482800       1.6636700
C        2.5892500      -2.7689000       2.8175400
N        2.5569400      -3.4642000       3.7522000
C        1.3585000      -1.6514800       0.7461200
O        2.0373200      -1.5900600      -0.5249400
C        0.9288900      -0.1804600       0.9049300
H        2.5422400       1.4217400       0.8986100
H        3.7000900      -0.3304500      -0.9159900
H        4.6767500      -1.2339000       1.4494000
H        0.5806800      -2.3994900       0.7786400
H        0.4581300       0.1323000       1.8884100
