14
dipolar_001545 reactant_2 (FRAG2 relaxed, reordered to d) type=dipolarophile
C       -2.0535700      -0.0373900      -0.3668700
C       -0.1943100       0.7649700       0.6931000
C        0.0913300      -1.2789400      -0.3378900
C        0.7579800      -0.1229100      -0.1733500
C        1.9981100       0.2840300      -0.7082300
N        3.0212200       0.6479700      -1.1330500
C       -1.4028300       1.1170800      -0.1990600
O       -0.7624200      -0.2589500       1.5192600
C       -1.2317500      -1.0760400       0.4295100
H       -2.9298900      -0.2660200      -0.9718600
H        0.2765100       1.5657800       1.2712000
H       -1.7461300      -1.9782900       0.7751300
H       -1.6007900       2.1000500      -0.6242900
H        0.3682500      -2.1545600      -0.9227800
