11
dipolar_000009 reactant_2 (FRAG2 relaxed, reordered to d) type=dipole
C       -2.3228400       0.2666700      -0.8832300
C       -1.2149700       0.1237600       0.1281600
C       -1.4877600       0.1107600       1.5189100
N       -1.7574300       0.1050500       2.6550000
C        1.1490000      -0.0969900      -0.6171100
C        2.4246800      -0.2231800      -1.0372900
N        3.5368300      -0.3330700      -1.4025100
N        0.0280100       0.0073800      -0.2429500
H       -1.9078700       0.2491200      -1.8997900
H       -2.8603400       1.2170400      -0.7357100
H       -3.0473900      -0.5570000      -0.7815600
