12
dipolar_000009 reactant_1 (FRAG1 relaxed, reordered to d) type=dipolarophile
C       -0.7939800      -0.9349700      -0.7816500
C       -0.0464600       0.0645300       0.0592700
C       -0.6742500       0.9380800       0.8606000
C        1.4531000       0.0180300      -0.0596200
H       -0.5564200      -0.7992900      -1.8515000
H        1.7665600       0.1873200      -1.1048500
H       -1.7661200       0.9600100       0.9367000
H       -0.1167100       1.6595000       1.4665200
H       -1.8834300      -0.8528700      -0.6535500
H        1.8354500      -0.9797400       0.2191000
H       -0.4886600      -1.9650400      -0.5263300
H        1.9432900       0.7692700       0.5771000
