13
dipolar_000583 reactant_1 @ TS geom
C        3.8905700       1.8510700       0.2358100
O        2.5074000       1.5563100      -0.0326100
C        1.6996400       1.3668100       1.0264800
O        2.0861800       1.4615300       2.1736400
C        0.3578900       0.8566300       0.5704100
C       -0.9025500       1.2320800       0.5653600
C       -1.8413900       2.3459000       0.9958100
H        4.3466000       1.0855300       0.8846700
H        3.9981600       2.8359500       0.7024600
H        4.4016600       1.8464200      -0.7468400
H       -2.3496400       2.8101700       0.0888400
H       -2.7215700       1.8439100       1.5356700
H       -1.5197000       3.1679800       1.6331800
