19
dipolar_000753 reactant_2 @ TS geom
C        1.4677500       1.2506900      -0.0670900
C        2.5857400       0.3627100       0.1295000
C        3.0274100      -0.0447500       1.4092700
C        4.1441100      -0.8657500       1.5322600
C        4.8331200      -1.3037800       0.3923300
C        4.3887300      -0.9252000      -0.8800100
C        3.2756500      -0.0980500      -1.0154700
O        0.6957100       1.5150400       0.9310800
N       -0.4104600       2.3200400       0.9522700
C       -0.5842300       2.9744200      -0.3153600
H        1.1505500       1.5253300      -1.0651700
H        2.4854900       0.2882600       2.2912500
H        4.5001600      -1.1429900       2.5254600
H        5.7286200      -1.9207300       0.5001500
H        4.9303500      -1.2619300      -1.7695300
H        2.9110700       0.1723100      -2.0100500
H       -0.6960300       2.3792100      -1.2525500
H        0.2116800       3.6571200      -0.3981200
H       -1.5657400       3.5150900      -0.2008400
