44
dipolar_000753 TS complex (tags stripped)
C       -4.7354100       1.8918400      -0.5917600
N       -3.6790700       1.1322600       0.0398300
C       -2.5952200       0.7237900      -0.6509800
O       -2.4584500       0.9850000      -1.8611700
C       -1.6192100      -0.1171800       0.0804800
C       -1.8350100      -0.7598200       1.4355400
C       -2.4168400      -2.1564300       1.0313700
C       -1.1915000      -2.8667000       0.3836700
C       -0.0640600      -1.7878300       0.4935500
C       -0.4053400      -1.1514000       1.8524000
C       -0.5697300      -0.7224300      -0.4804100
C       -0.1333400      -0.6887100      -1.8351500
N        0.2611300      -0.7767300      -2.9319400
C        1.4677500       1.2506900      -0.0670900
C        2.5857400       0.3627100       0.1295000
C        3.0274100      -0.0447500       1.4092700
C        4.1441100      -0.8657500       1.5322600
C        4.8331200      -1.3037800       0.3923300
C        4.3887300      -0.9252000      -0.8800100
C        3.2756500      -0.0980500      -1.0154700
O        0.6957100       1.5150400       0.9310800
N       -0.4104600       2.3200400       0.9522700
C       -0.5842300       2.9744200      -0.3153600
H       -5.0921600       1.3629600      -1.4965600
H       -5.5671800       1.9865600       0.1100300
H       -4.3944300       2.8868800      -0.8963100
H       -3.7039900       0.9821500       1.0432200
H       -2.4073700      -0.1730300       2.1782600
H       -3.2476000      -1.9731300       0.3023800
H       -2.7739400      -2.6400800       1.8802500
H       -0.9188800      -3.7309900       0.9069500
H       -1.3503800      -3.0933200      -0.6963300
H        0.9719000      -2.1415700       0.3502000
H       -0.4102500      -1.9004400       2.6653500
H        0.2450900      -0.3120200       2.1633100
H        1.1505500       1.5253300      -1.0651700
H        2.4854900       0.2882600       2.2912500
H        4.5001600      -1.1429900       2.5254600
H        5.7286200      -1.9207300       0.5001500
H        4.9303500      -1.2619300      -1.7695300
H        2.9110700       0.1723100      -2.0100500
H       -0.6960300       2.3792100      -1.2525500
H        0.2116800       3.6571200      -0.3981200
H       -1.5657400       3.5150900      -0.2008400
