22
dipolar_000484 reactant_2 (FRAG2 relaxed, reordered to d) type=dipole
C        1.4662800      -0.7964800      -0.0883900
O        1.0559800       2.3410200       0.3658300
C        2.7036200      -1.5409900      -0.1885900
O        2.6780300      -2.7440300      -0.3933800
C       -0.5431100       0.6551600       0.0916800
C       -1.9065700       0.1313300      -0.0109300
C       -3.1994300      -1.8201100      -0.3346700
O       -1.9141100      -1.1975600      -0.2175300
N        0.4666100      -0.1941400      -0.0166900
C       -0.1406100       2.0558500       0.3049100
C       -1.2078100       3.1061200       0.4419200
C        3.9394700      -0.7091500      -0.0103800
O       -2.9239400       0.7980500       0.0767300
H        3.7151100       0.3660800       0.0177800
H        4.6381400      -0.9343000      -0.8307200
H       -1.8478000       3.1279000      -0.4526000
H       -3.7850500      -1.6768700       0.5851800
H       -3.0036800      -2.8867300      -0.4951700
H       -3.7550000      -1.4047400      -1.1881800
H       -1.8650500       2.8798100       1.2948200
H       -0.7238600       4.0808300       0.5860200
H        4.4187300      -1.0054700       0.9375900
