16
dipolar_000484 reactant_1 (FRAG1 relaxed, reordered to d) type=dipolarophile
C        0.2082500       0.6452000      -0.7342600
C        1.0751400      -0.2982500       0.1457900
C        0.2023600      -1.1939100       0.6250700
C       -1.1662900      -0.7762100       0.0427100
C       -1.5617500       0.5643300       0.7088800
C       -0.6947700       1.4576400       0.2219900
O       -0.7513400      -0.2957500      -1.2550500
C        2.5217500      -0.0757300       0.4018400
H        0.7271100       1.1931500      -1.5295000
H        3.0994300      -0.0788500      -0.5387300
H        0.3654300      -2.0011400       1.3388000
H       -1.9417600      -1.5469300      -0.0327400
H       -2.3418000       0.6878700       1.4599300
H       -0.5702500       2.5130200       0.4630500
H        2.6805200       0.9167600       0.8612600
H        2.9403900      -0.8390800       1.0740300
