16
dipolar_000484 reactant_1 @ TS geom
C       -1.0536500       0.4085600       0.9080100
C       -2.3952300       0.2960100       0.0857100
C       -3.3359400      -0.7732000       0.6755100
C       -2.7556800      -1.9575200       0.4209200
C       -3.1605100      -3.3568900       0.7290100
C       -1.4395400      -1.5782200      -0.3175300
O       -1.8763600      -0.4175000      -1.0566000
C       -0.5141100      -0.9149100       0.7063000
H       -1.0782000       0.8490800       1.9624700
H       -2.8286000       1.2516000      -0.1636600
H       -4.3173100      -0.5898000       1.1631200
H       -4.1524900      -3.4181500       1.2212800
H       -3.2092200      -3.9932600      -0.1884400
H       -2.4201800      -3.8279400       1.3856400
H       -0.9914900      -2.3406400      -0.9449200
H        0.1013300      -1.5077300       1.4317700
