30
dipolar_002696 reactant_2 (FRAG2 relaxed, reordered to d) type=dipolarophile
C       -0.2810000      -1.6934500      -0.6363900
C       -1.3046700      -2.5295800      -1.2869600
C       -2.6687800      -0.3053700      -1.2471600
O       -2.0793600      -3.2344200      -0.3312200
C       -1.3654200      -4.2531300       0.3434400
C       -1.7622300       0.9547800      -1.3460000
C       -1.0012600       1.4062300      -0.0833500
C        0.3655900       0.6979500       0.2212900
C        0.2310200      -0.7086800      -0.1521300
C        1.5103500       1.3451400      -0.5965200
C        0.6657300       0.8128900       1.7358400
F        1.8470000       0.2693100       2.0610300
F       -0.2744200       0.1709000       2.4438700
F        0.6785600       2.0882000       2.1455200
C       -2.2319200      -1.5552100      -2.0399000
F        2.6816300       0.7238500      -0.4013300
F        1.2462400       1.2868100      -1.9095900
F        1.6792300       2.6360700      -0.2784300
H       -3.1150700      -2.1455000      -2.3316600
H       -2.8272400      -0.5820400      -0.1915900
H       -2.0644200      -4.7438800       1.0351300
H       -0.5190700      -3.8426300       0.9248800
H       -3.6622400      -0.0243400      -1.6282900
H       -1.0658600       0.8509400      -2.1905100
H       -1.6469500       1.2450900       0.7913300
H       -2.4079900       1.8078300      -1.6044400
H       -0.8040600       2.4867400      -0.1342000
H       -1.7259300      -1.2523700      -2.9701800
H       -0.8503900      -3.2443600      -1.9971700
H       -0.9695700      -5.0048600      -0.3645800
