30
dipolar_002696 reactant_2 @ TS geom
C       -0.7446900      -3.5144600      -3.9230600
C        0.3401400      -3.0331300      -4.0462200
C        1.8118700      -3.0409900      -3.9907600
O        2.1573500      -3.4642400      -2.6758400
C        1.9984400      -2.4578800      -1.6903000
C        2.2717700      -4.1042400      -4.9941800
C        1.8662800      -5.5565300      -4.6967200
C        0.3789100      -5.9674400      -4.7551100
C       -0.4451900      -5.8157900      -3.4505200
C       -1.5025200      -4.6606200      -3.4361000
C       -1.9153100      -4.3788900      -1.9688700
F       -2.4434500      -5.4750500      -1.3954800
F       -2.8136000      -3.3935600      -1.8621100
F       -0.8522300      -4.0177400      -1.2361200
C       -2.7308200      -5.0448600      -4.2809200
F       -3.2512400      -6.2134300      -3.8636600
F       -3.7168500      -4.1361400      -4.2293900
F       -2.3997500      -5.1938600      -5.5698100
H        2.2982400      -2.0913000      -4.2015900
H        2.1924900      -2.9347400      -0.7185000
H        2.7296600      -1.6585500      -1.8611400
H        0.9842000      -2.0118000      -1.6651500
H        3.3420400      -4.0265100      -5.0302100
H        1.8745400      -3.7873100      -5.9865800
H        2.2847300      -5.8501400      -3.7335300
H        2.3941300      -6.1510300      -5.4611700
H       -0.1082700      -5.4468200      -5.6062000
H        0.3420700      -7.0277500      -5.0033100
H        0.2637800      -5.5422500      -2.6361200
H       -0.9481400      -6.6992000      -3.1869000
