24
dipolar_002696 reactant_1 @ TS geom
C       -0.3681500      -0.3011700      -8.4809100
N       -0.5748800      -0.1323900      -7.0624300
C        0.2630400      -0.6569900      -6.1526500
O        1.3366900      -1.1915900      -6.4466200
C       -0.1443800      -0.3741500      -4.7430100
C        0.7818200       0.2329100      -3.7537300
O        0.3481300       0.5430000      -2.6265700
N        2.0415700       0.4477900      -4.1575000
C        3.0191500       1.0716900      -3.2909600
N       -1.3390400      -0.6002300      -4.2244000
C       -2.4600300      -1.2477200      -4.6681200
C       -2.4980600      -1.9709900      -5.8870900
N       -2.6145200      -2.5270500      -6.9078100
C       -3.5969500      -1.2456900      -3.8311300
N       -4.5614300      -1.2257900      -3.1673300
H       -1.1042300       0.3389700      -8.9721900
H        0.6426000       0.0239000      -8.7421300
H       -0.5137400      -1.3374400      -8.7588000
H       -1.4134200       0.3054000      -6.6961400
H        2.3423900       0.0201500      -5.0453600
H        3.9551300       1.1849900      -3.8477400
H        3.1945600       0.4845200      -2.3865600
H        2.6561700       2.0712400      -2.9947000
H       -1.4073800      -0.1804300      -3.2959500
