54
dipolar_002696 TS complex (tags stripped)
C       -0.3681500      -0.3011700      -8.4809100
N       -0.5748800      -0.1323900      -7.0624300
C        0.2630400      -0.6569900      -6.1526500
O        1.3366900      -1.1915900      -6.4466200
C       -0.1443800      -0.3741500      -4.7430100
C        0.7818200       0.2329100      -3.7537300
O        0.3481300       0.5430000      -2.6265700
N        2.0415700       0.4477900      -4.1575000
C        3.0191500       1.0716900      -3.2909600
N       -1.3390400      -0.6002300      -4.2244000
C       -2.4600300      -1.2477200      -4.6681200
C       -2.4980600      -1.9709900      -5.8870900
N       -2.6145200      -2.5270500      -6.9078100
C       -3.5969500      -1.2456900      -3.8311300
N       -4.5614300      -1.2257900      -3.1673300
C       -0.7446900      -3.5144600      -3.9230600
C        0.3401400      -3.0331300      -4.0462200
C        1.8118700      -3.0409900      -3.9907600
O        2.1573500      -3.4642400      -2.6758400
C        1.9984400      -2.4578800      -1.6903000
C        2.2717700      -4.1042400      -4.9941800
C        1.8662800      -5.5565300      -4.6967200
C        0.3789100      -5.9674400      -4.7551100
C       -0.4451900      -5.8157900      -3.4505200
C       -1.5025200      -4.6606200      -3.4361000
C       -1.9153100      -4.3788900      -1.9688700
F       -2.4434500      -5.4750500      -1.3954800
F       -2.8136000      -3.3935600      -1.8621100
F       -0.8522300      -4.0177400      -1.2361200
C       -2.7308200      -5.0448600      -4.2809200
F       -3.2512400      -6.2134300      -3.8636600
F       -3.7168500      -4.1361400      -4.2293900
F       -2.3997500      -5.1938600      -5.5698100
H       -1.1042300       0.3389700      -8.9721900
H        0.6426000       0.0239000      -8.7421300
H       -0.5137400      -1.3374400      -8.7588000
H       -1.4134200       0.3054000      -6.6961400
H        2.3423900       0.0201500      -5.0453600
H        3.9551300       1.1849900      -3.8477400
H        3.1945600       0.4845200      -2.3865600
H        2.6561700       2.0712400      -2.9947000
H       -1.4073800      -0.1804300      -3.2959500
H        2.2982400      -2.0913000      -4.2015900
H        2.1924900      -2.9347400      -0.7185000
H        2.7296600      -1.6585500      -1.8611400
H        0.9842000      -2.0118000      -1.6651500
H        3.3420400      -4.0265100      -5.0302100
H        1.8745400      -3.7873100      -5.9865800
H        2.2847300      -5.8501400      -3.7335300
H        2.3941300      -6.1510300      -5.4611700
H       -0.1082700      -5.4468200      -5.6062000
H        0.3420700      -7.0277500      -5.0033100
H        0.2637800      -5.5422500      -2.6361200
H       -0.9481400      -6.6992000      -3.1869000
