18
dipolar_000606 reactant_2 (FRAG2 relaxed, reordered to d) type=dipole
N        1.3268500       1.2393500       0.3895800
N        2.6600700       0.9445800       0.4061400
C        0.5700900       0.2055300       0.0906200
C       -0.8722700       0.1192800      -0.0288600
C       -1.6892800       1.2531800       0.1476300
C       -3.0711500       1.1333700       0.0236300
C       -2.8391300      -1.2333800      -0.4508500
C       -1.4551300      -1.1262300      -0.3296300
C       -3.6487200      -0.1066200      -0.2749000
O        1.3687500      -0.8314200      -0.1047500
C        2.7316400      -0.3515800       0.0998100
O        3.6592900      -1.1285700      -0.0249100
H        1.0071300       2.1852700       0.5948000
H       -1.2548300       2.2281300       0.3773300
H       -3.7026200       2.0135700       0.1595500
H       -4.7332200      -0.1933300      -0.3714900
H       -3.2881800      -2.2009500      -0.6840000
H       -0.8186800      -2.0013300      -0.4657600
