18
dipolar_000606 reactant_2 @ TS geom
N       -0.6196800      -1.8829500      -0.7442500
N        0.6562700      -1.9217500      -0.2157400
C        0.9646200      -0.4291500      -0.2474800
C        2.4910200      -0.2087700      -0.0761100
C        3.1110900      -0.7123700       1.0751900
C        4.4342200      -0.3730500       1.3710300
C        5.1494200       0.4724500       0.5170100
C        4.5454800       0.9516300      -0.6477400
C        3.2206200       0.6070900      -0.9484700
O        0.6611700      -0.2787100      -1.7092500
C       -0.5065100      -1.0089900      -1.8278100
O       -1.2877900      -0.8592200      -2.7412700
H        0.6924200      -2.3114300       0.7182300
H        2.5559600      -1.3584200       1.7548800
H        4.8976100      -0.7471200       2.2893300
H        6.1761400       0.7631300       0.7703800
H        5.1066900       1.6237500      -1.3120500
H        2.7651800       0.9872600      -1.8637800
