19
dipolar_000606 reactant_1 (FRAG1 relaxed, reordered to d) type=dipolarophile
C        3.1252400       0.2672300       0.3743800
C        1.6904200       0.1659500       0.2123600
O        3.6369200       1.2848900       0.8288600
C        0.4825400       0.0671600       0.0704000
C       -0.9285300      -0.0411500      -0.0940300
C       -1.4959300      -1.2305300      -0.6002800
C       -1.7696300       1.0401000       0.2470500
C       -3.1487000       0.9286400       0.0823600
C       -2.8764400      -1.3304700      -0.7601600
C       -3.7038100      -0.2538300      -0.4203500
C        3.9255800      -0.9345800      -0.0448400
H        3.7403900      -1.1514700      -1.1096700
H        4.9950300      -0.7504700       0.1234900
H        3.5970800      -1.8183800       0.5261200
H       -1.3292600       1.9587600       0.6385600
H       -3.7953800       1.7679400       0.3471500
H       -3.3111200      -2.2524800      -1.1521100
H       -0.8445200      -2.0658100      -0.8632600
H       -4.7855500      -0.3368200      -0.5479200
