37
dipolar_000606 TS complex (tags stripped)
C        0.6689600       2.7820600       0.6404800
C        0.6062900       1.4507500       1.3159400
O        0.9905600       1.2393200       2.4363000
C        0.1077000       0.2351400       0.4211400
C       -1.1926600      -0.0643900       0.3226700
C       -2.6225400       0.0385800       0.3537900
C       -3.3995900      -0.7270300       1.2702400
C       -4.7862800      -0.7640300       1.1654300
C       -5.4427300      -0.0637800       0.1416800
C       -4.6973100       0.6864800      -0.7745700
C       -3.3066300       0.7475100      -0.6758500
N       -0.6196800      -1.8829500      -0.7442500
N        0.6562700      -1.9217500      -0.2157400
C        0.9646200      -0.4291500      -0.2474800
C        2.4910200      -0.2087700      -0.0761100
C        3.1110900      -0.7123700       1.0751900
C        4.4342200      -0.3730500       1.3710300
C        5.1494200       0.4724500       0.5170100
C        4.5454800       0.9516300      -0.6477400
C        3.2206200       0.6070900      -0.9484700
O        0.6611700      -0.2787100      -1.7092500
C       -0.5065100      -1.0089900      -1.8278100
O       -1.2877900      -0.8592200      -2.7412700
H       -0.3243200       3.1738900       0.4822700
H        1.1518400       2.6586300      -0.3494300
H        1.2805100       3.5067700       1.2438200
H       -2.9046400      -1.2962600       2.0448100
H       -5.3861000      -1.3556600       1.8788000
H       -6.5490500      -0.1031700       0.0633000
H       -5.2274800       1.2308300      -1.5760600
H       -2.7450200       1.3184100      -1.4009300
H        0.6924200      -2.3114300       0.7182300
H        2.5559600      -1.3584200       1.7548800
H        4.8976100      -0.7471200       2.2893300
H        6.1761400       0.7631300       0.7703800
H        5.1066900       1.6237500      -1.3120500
H        2.7651800       0.9872600      -1.8637800
