29
dipolar_001382 reactant_2 (FRAG2 relaxed, reordered to d) type=dipole
C        4.5236000       0.4354400       0.0234700
O        3.5581000      -0.6224100      -0.0206100
C        2.2776100      -0.2726500       0.1886800
O        1.9271300       0.8790300       0.3979600
C       -0.3029500       0.5721100      -0.9337100
C       -0.7092000      -0.3974700       0.1038400
C       -2.0165000      -0.3432900       0.7547500
O       -2.3021700      -0.8906500       1.8120300
O       -2.9167300       0.3749100       0.0581300
C       -0.4688100      -2.7490800       0.8088600
C       -4.1972300       0.5609700       0.6691200
O       -0.7667700       1.8050700      -0.7101200
O        0.3679000       0.2894000      -1.9132400
C       -0.4717700       2.7904000      -1.7077300
N        0.1154600      -1.4589200       0.3608500
C        1.4351600      -1.4618400       0.2018300
H        4.5445800       0.8986900       1.0210000
H        5.4914300      -0.0292800      -0.1974300
H        4.2892600       1.2032000      -0.7284700
H        0.6157300       2.9183500      -1.8085700
H       -0.6047400      -2.7253600       1.8949400
H        0.2304700      -3.5469600       0.5402100
H        1.9335400      -2.4282400       0.2187600
H       -4.7679700       1.1994000      -0.0156500
H       -4.7099700      -0.4032100       0.8016500
H       -4.0949700       1.0533000       1.6476200
H       -0.8971700       2.5008100      -2.6797000
H       -0.9322100       3.7212500      -1.3567300
H       -1.4315700      -2.9090500       0.3137600
