16
dipolar_001382 reactant_1 @ TS geom
C       -1.4715200       1.0329000       1.1694000
C       -2.2540300       1.9831100       0.2421200
O       -1.4202800       3.1785200       0.3855300
C       -0.2101100       2.4828000      -0.0456900
C       -0.7355300       1.9947300      -1.4048500
F        0.0334800       1.9338700      -2.4999900
C       -2.0134600       1.6456700      -1.2521600
C       -3.0270200       1.0673000      -2.1713400
C       -0.2161000       1.3352800       0.9993300
H       -1.9193200       0.3747000       1.9166400
H       -3.2739700       2.1274200       0.5335200
H        0.6866800       3.0958800      -0.0691400
H       -3.9233800       1.7112900      -2.2299700
H       -2.6304200       0.9408400      -3.1956500
H       -3.3621700       0.0846500      -1.8099500
H        0.6939400       1.0123900       1.5531100
