31
dipolar_001785 reactant_1 @ TS geom
C       -0.0271300      -6.9309000       3.7121900
N       -1.0302100      -6.5607900       2.7359400
C       -1.8078000      -5.4504600       2.9314800
O       -1.8008800      -4.8584700       4.0523100
C       -2.6553700      -5.0064500       1.8519500
C       -2.8636400      -5.7038200       0.5414500
N       -3.2743700      -3.8350500       2.1941000
C       -4.1115800      -2.9641300       1.6410000
C       -4.7027900      -3.1438300       0.2712300
C       -4.4496400      -1.7879400       2.4406800
C       -3.6483100      -1.3461100       3.5225000
C       -4.0229200      -0.2467400       4.2901400
C       -5.1948600       0.4623100       3.9948500
C       -5.9770400       0.0617600       2.9076300
C       -5.6096100      -1.0413600       2.1370400
H       -0.5027000      -7.0321200       4.7030500
H        0.3800200      -7.9192600       3.4324100
H        0.7970700      -6.2175700       3.7942500
H       -0.7929400      -6.7721100       1.7631400
H       -2.5817000      -5.1505500      -0.3846700
H       -3.9021800      -5.9519100       0.5038000
H       -2.2701100      -6.6256500       0.5325100
H       -3.0410400      -3.6396200       3.1721700
H       -4.1197500      -3.7812300      -0.4077300
H       -5.6849000      -3.5755700       0.4115500
H       -4.8390000      -2.1710000      -0.2557500
H       -2.6865900      -1.8310300       3.7379500
H       -3.3940100       0.0624100       5.1293100
H       -5.4985600       1.3068500       4.6054000
H       -6.8960500       0.5877200       2.6636100
H       -6.2209800      -1.3371900       1.2851200
