26
dipolar_001785 reactant_2 (FRAG2 relaxed, reordered to d) type=dipolarophile
C       -0.4717700      -2.0520700      -0.1900200
C        0.7414500      -2.9979000      -0.1119400
C        0.4402600      -0.3525000      -2.0168900
F        1.1860900       2.1207700       1.8176300
F       -0.8160800       2.3807300       0.9807900
C        0.1408600       1.1330400      -1.6652800
C       -0.5978700      -1.4223700      -1.6171300
C        0.9310600       1.7863500      -0.5152400
C        0.0000900       0.2088600       1.1106600
C       -0.2614300      -0.8964800       0.6807800
C       -1.7581000      -2.8160400       0.1609100
C        0.3268000       1.6144400       0.8734400
H        1.4363900      -0.6313100      -1.6339400
H        0.5275900      -0.4081900      -3.1129100
H        0.3656100       1.7320300      -2.5604900
H       -1.6086200      -0.9929300      -1.7136500
H       -0.9387900       1.2710700      -1.4856900
H        1.0101100       2.8738800      -0.6749000
H        1.9552400       1.3843300      -0.4729800
H        1.6721000      -2.4837800      -0.3933200
H       -2.6313500      -2.1464900       0.1538200
H       -1.9274200      -3.6145100      -0.5780800
H       -0.5453900      -2.2634700      -2.3281400
H        0.8625000      -3.3945100       0.9074200
H       -1.6810500      -3.2784800       1.1567700
H        0.5899900      -3.8453300      -0.7983400
