17
dipolar_000759 reactant_2 @ TS geom
C        0.2027600      -0.8541700       0.3983000
C       -1.1572500      -1.0051600       1.1264900
O       -1.8850600       0.0851300       0.5130300
C       -1.7355300      -0.3949000      -0.8431300
C       -2.3162200      -1.8246900      -0.6957300
O       -3.0041700      -2.3923100      -1.6945400
C       -3.4386600      -3.7461300      -1.4921900
C       -1.9454300      -2.1935200       0.5435300
F       -2.1439600      -3.3354500       1.2127500
C       -0.1815100      -0.4292900      -0.9314400
H        1.0192500      -1.6364700       0.5624700
H       -1.0868800      -0.9496800       2.1926900
H       -2.2419900       0.2218800      -1.5822700
H       -3.9617600      -4.0713400      -2.4149900
H       -4.1433500      -3.8334700      -0.6438000
H       -2.5784900      -4.4116700      -1.3190200
H        0.2707400      -0.9086200      -1.8949800
