23
dipolar_000759 reactant_1 @ TS geom
C        2.8264000       2.9390500       1.9013900
N        2.0812400       2.0302200       2.7571400
C        1.4030100       0.9024200       2.4040000
O        1.1001300       0.0452900       3.2598100
N        1.1037200       0.6830100       1.0569500
C        0.4656400       1.4047300      -0.9695300
C        1.7313900       1.1765500      -1.7340400
O        2.8373800       0.9208500      -1.2954100
O        1.4683100       1.2505900      -3.0507700
C        2.5272800       0.8877800      -3.9389100
N        0.5632900       1.7286700       0.3729300
C       -0.4339100       2.5959200       1.0111400
H        2.2468600       3.8425900       1.6170100
H        3.1740600       2.4397700       1.0188300
H        3.7276100       3.3299600       2.4592700
H        2.2905500       2.1140000       3.7926000
H       -0.2153400       2.1437700      -1.4929300
H        2.1086600       0.9829900      -4.9433200
H        2.8235000      -0.1547500      -3.7455600
H        3.3873900       1.5469100      -3.8094400
H        0.0592500       3.5216500       1.3842800
H       -1.2076300       2.8699500       0.3069500
H       -0.8854000       2.0753300       1.8749100
