17
dipolar_000759 reactant_2 (FRAG2 relaxed, reordered to d) type=dipolarophile
C       -0.6288500      -0.3399900      -0.2025700
C       -2.8878900       0.2194500       0.1417300
O       -1.8865300      -0.7826600      -0.0494900
C        1.2845500      -1.2498200       1.1160000
C       -0.0262900       0.8573800      -0.2413100
O        1.4696100      -0.6277800      -1.0863300
C        1.4825500       0.5628500      -0.2707900
C        0.5455400      -1.3435300      -0.2421300
F       -0.5131700       2.0995300      -0.0885500
C        1.8758600      -0.0519500       1.0975600
H       -3.8457800      -0.3068300       0.2393200
H       -2.6893900       0.7989200       1.0573900
H        1.2522900      -2.0040300       1.9013400
H        2.1243300       1.3522100      -0.6785500
H        2.4668200       0.4489700       1.8636100
H       -2.9278600       0.9008400      -0.7232400
H        0.3026000      -2.3406800      -0.6260500
