28
dipolar_002456 reactant_1 (FRAG1 relaxed, reordered to d) type=dipole
C       -1.4039800       2.6846700       1.2650400
N        0.2459800      -1.3949600      -0.4728600
C       -0.7348200       0.4965600       0.7115800
O       -1.3664600       1.6004900       0.3251200
N        3.0678800       0.2016200       0.7498000
N        1.4694500      -1.1777500      -0.0838500
C        1.9259900       0.1397300       0.0379700
C       -0.8196400      -0.5887900      -0.3062500
C        0.1027700      -2.7352900      -1.0937700
C       -2.0924300      -0.8416300      -1.0199100
O        1.4139200       1.1265000      -0.5095700
C        3.8143700       1.4321800       0.8963700
O       -2.1240100      -1.4928800      -2.0604700
O       -0.2063800       0.3644100       1.7999100
C       -3.3662800      -0.2814300      -0.4351500
H       -1.9695000       3.4859900       0.7765400
H       -1.9053800       2.3731900       2.1924200
H       -0.3821700       3.0205900       1.4918600
H       -3.3557300      -0.2615300       0.6637300
H        3.1293500       2.2672000       1.1007200
H        3.4719100      -0.6731400       1.0688100
H       -0.8660500      -3.1752400      -0.8456100
H       -3.5139700       0.7501900      -0.7894700
H        0.2053800      -2.6359200      -2.1804600
H       -4.2025000      -0.8953300      -0.7959100
H        0.9237100      -3.3369500      -0.6936900
H        4.5124400       1.3309200       1.7368900
H        4.3919000       1.6791800      -0.0112200
