29
dipolar_002456 reactant_2 @ TS geom
C        0.0395300      -1.1432000      -0.8678600
C       -0.1082700      -2.3315400       0.0135700
O       -0.2212500      -2.3348700       1.2319200
O       -0.2139300      -3.4625200      -0.7015700
C       -0.5946600      -4.6504000       0.0203700
C        0.1298900      -1.4419400      -2.3950600
C        1.5104200      -2.0414800      -2.7059600
C        2.3662400      -1.0200000      -2.5770100
C        1.4891000       0.1842800      -2.1841300
O        0.2839500      -0.1047500      -2.8985900
C        1.0156500      -0.0092400      -0.6868700
C        2.1372300       0.0209100       0.3357400
C        3.3979100       0.5381700      -0.0272200
C        4.4164600       0.7017500       0.9157100
C        4.2046800       0.3552900       2.2519700
C        2.9670000      -0.1760500       2.6254700
C        1.9514600      -0.3444000       1.6819100
H       -0.6722300      -5.4750600      -0.7066100
H       -1.5954700      -4.5119600       0.5024900
H        0.1291700      -4.9103000       0.8035800
H       -0.7349800      -1.9521100      -2.8091400
H        1.7202600      -3.1032700      -3.0301400
H        3.4736200      -1.0288500      -2.7651500
H        1.8851500       1.1592300      -2.3885000
H        3.6156200       0.8412200      -1.0490800
H        5.3851100       1.1342700       0.6171300
H        4.9913300       0.5136400       3.0071100
H        2.7799700      -0.4445300       3.6718200
H        1.0127800      -0.7783300       1.9886900
