29
dipolar_002456 reactant_2 (FRAG2 relaxed, reordered to d) type=dipolarophile
C       -0.8151700      -2.5904000       0.6451000
C        0.2497200      -0.5574700      -0.3273200
O       -0.9067700       2.3643100      -0.1635700
O       -2.8638400       1.2558000      -0.1039300
C        2.4548000      -0.9323900       0.7212400
C        0.0127200      -2.0842800      -0.5537800
C        1.5426800      -0.0448200       0.1069000
C        1.9317100       1.3003900      -0.0697600
C       -1.9046500      -1.2271900      -0.8297300
O       -0.9865800      -2.0374100      -1.5781900
C       -0.9857300      -0.0175700      -0.5146500
C       -1.5238900       1.3139700      -0.2521000
C       -2.0258700      -2.0526400       0.4687000
C       -3.5369600       2.4902800       0.1651200
C        3.1819500       1.7385900       0.3635100
C        4.0671800       0.8527400       0.9877900
C        3.6972400      -0.4841100       1.1670400
H        4.3825400      -1.1832900       1.6514300
H        2.1842500      -1.9792800       0.8683900
H        3.4692900       2.7816500       0.2116100
H       -0.4266900      -3.1948100       1.4638200
H        5.0447400       1.2019100       1.3284200
H        0.8860700      -2.6696500      -0.8562500
H       -2.8216000      -1.0109000      -1.3851800
H        1.2435200       1.9929200      -0.5489500
H       -3.3731300       3.2071900      -0.6529900
H       -4.6022900       2.2436000       0.2438600
H       -3.1796100       2.9297700       1.1080200
H       -2.9106200      -2.0956400       1.1028000
