17
dipolar_000502 reactant_1 @ TS geom
C       -0.9614700      -1.7792600      -0.5646600
C       -1.4328100      -1.2175500       0.8038300
O       -0.2111700      -0.7118500       1.3552000
C        0.1410900       0.0578000       0.1954200
C       -1.1329000       0.9285000       0.0542300
Br      -1.0588200       2.5560700      -0.9045800
C       -2.1350600       0.1061200       0.4181400
O       -3.4700100       0.0982200       0.3841100
C       -4.1440900       1.2385300      -0.1429800
C        0.0261200      -1.0137200      -0.9270100
H       -1.4012400      -2.6602300      -1.0261600
H       -1.9755900      -1.8518300       1.5348700
H        1.0908800       0.6069100       0.3489700
H       -5.2074800       1.0329600      -0.0253500
H       -3.8627300       2.1342200       0.4230000
H       -3.9008200       1.3739400      -1.2080800
H        0.6547600      -1.0254900      -1.8081300
