17
dipolar_000502 reactant_1 (FRAG1 relaxed, reordered to d) type=dipolarophile
C        2.6532800       0.7550300       0.6734400
C       -0.1299800      -0.2722200       0.0143400
O        1.5703000       0.6439500       1.6007900
C        0.4020600       0.1636500       1.1728100
C       -0.7770800       0.1341200       2.1773900
Br       0.4944000      -0.3391700      -1.7611000
C       -1.6203100      -0.5290900       0.3508900
O       -1.4903100      -1.0183800       1.6988300
C       -2.2846600       0.8431300       0.6166000
C       -1.7489700       1.2634000       1.7664400
H        2.4082000       1.4619500      -0.1330300
H        2.9025200      -0.2276200       0.2454300
H       -0.4920100       0.0549600       3.2322800
H       -2.9853100       1.3420600      -0.0521900
H       -2.1480100      -1.2339300      -0.3011000
H       -1.8836600       2.2019700       2.3025400
H        3.5091800       1.1334600       1.2460400
