17
dipolar_001731 reactant_2 @ TS geom
C        0.0338000       1.8059300       0.0138000
C        0.2443200       2.0433600      -1.4714000
C       -0.1671100       3.5457100      -1.6489800
C       -1.7083200       3.5183400      -1.4129900
C       -1.9857400       2.0034900      -1.1249200
C       -0.9833600       1.3409700      -2.0881400
C       -1.2664900       1.8075700       0.1848800
F       -1.9577900       1.9572400       1.3582900
H        0.7996800       1.8468100       0.7907300
H        1.2368500       1.7677400      -1.8912700
H        0.3738100       4.1297600      -0.8561200
H        0.0880400       3.8833400      -2.5931400
H       -2.0183900       4.0741500      -0.4943200
H       -2.2458300       3.8291200      -2.2411400
H       -3.0293600       1.6462400      -1.1933700
H       -0.9520800       0.2295900      -2.0607900
H       -1.1392200       1.6409800      -3.1468700
