37
dipolar_001731 reactant_1 @ TS geom
C        1.5766900      -1.9081300       3.8214900
N        1.2965300      -1.8427700       2.4102600
C        1.3056200      -0.6635900       1.7404000
O        1.8047400       0.3599700       2.2095600
C        0.9339300      -0.8795900       0.2932100
C        2.0575200      -0.7789600      -0.6387700
C        3.3856200      -0.7517700      -0.1356200
C        4.4878700      -0.6852300      -0.9834200
C        4.3200600      -0.6403200      -2.3714100
C        3.0223900      -0.6295100      -2.8926800
C        1.9152200      -0.6829300      -2.0489200
C       -1.5531100      -1.1716600       0.4388800
C       -2.7287600      -1.5081500      -0.4442100
C       -1.8117300      -0.6380800       1.7487700
O       -0.9949300      -0.3314700       2.6224700
O       -3.1521900      -0.5257900       2.0055300
C       -3.5065600      -0.0167700       3.2890700
N       -0.2800200      -1.3616500      -0.0779300
C       -0.2728000      -2.3824100      -1.1695100
H        1.5836300      -2.9685500       4.0743800
H        0.8095600      -1.3827300       4.3774300
H        2.5524200      -1.4707400       4.0108600
H        0.7389600      -2.5558100       1.9435500
H        3.5500300      -0.7613400       0.9369100
H        5.4848300      -0.6961500      -0.5471500
H        5.1884100      -0.6249900      -3.0308600
H        2.8707400      -0.5915100      -3.9768700
H        0.9283800      -0.6254000      -2.5062600
H       -3.6025700      -0.8541100      -0.1688100
H       -2.5440100      -1.2799700      -1.5190600
H       -3.0209700      -2.5180700      -0.3348800
H       -3.1084100       0.9909100       3.4582200
H       -4.6132400       0.0164800       3.3158200
H       -3.1519800      -0.6824500       4.0953600
H       -0.6329400      -2.0250500      -2.0960800
H       -0.9037800      -3.2035200      -0.7897500
H        0.7542200      -2.7532200      -1.2363800
