16
dipolar_000551 reactant_1 (FRAG1 relaxed, reordered to d) type=dipolarophile
C        2.3396000       0.6698000      -0.8501800
C        0.9116300       0.2919700      -0.9711900
C        0.0224300      -0.1965600      -0.0981000
Br       0.2411200      -0.6076400       1.7227200
C       -1.3482900      -0.1979300      -0.8143300
O       -0.9077100      -0.5189500      -2.1441300
C       -0.8812200       1.7628800      -1.8941300
C        0.0393700       0.5663600      -2.2288500
C       -1.7553200       1.2835500      -1.0042200
H        2.7438500       0.4162200       0.1402900
H        2.9504900       0.1712100      -1.6215300
H        2.4584000       1.7569200      -1.0070400
H       -2.1064500      -0.8947600      -0.4414500
H       -2.5513900       1.7908900      -0.4604400
H       -0.7632300       2.7740300      -2.2821800
H        0.5674600       0.5832700      -3.1889000
