17
dipolar_000551 reactant_2 (FRAG2 relaxed, reordered to d) type=dipole
N        2.2806000       0.5583100       0.5623800
N        3.5584500       0.4464600       0.8093700
C        1.4521200      -0.4206900       0.2334900
C        0.0422500      -0.2386900      -0.0302500
C       -0.6267100       1.0086600       0.0227900
C       -1.9913900       1.0996000      -0.2440700
C       -2.7355300      -0.0408700      -0.5723700
C       -2.0894000      -1.2811300      -0.6301700
C       -0.7248600      -1.3803700      -0.3642800
H        1.8995000      -1.4141900       0.1680600
H        1.8553700       1.4931800       0.6245900
H       -0.2298600      -2.3536800      -0.4120900
H       -0.0815300       1.9222400       0.2751300
H       -2.4812900       2.0753500      -0.1949400
H       -3.8049000       0.0376800      -0.7803200
H       -2.6545800      -2.1812400      -0.8851300
H        3.8779600       1.3948000       1.0276900
