33
dipolar_000551 TS complex (tags stripped)
C        4.1604500      -0.2372300       0.8550100
C        2.8145200      -0.2842900       0.2230500
C        1.9598400       0.6836400      -0.1463700
Br       2.1505800       2.5489700       0.0196700
C        0.6965700      -0.0135700      -0.7012000
O        1.3245600      -1.1569800      -1.3219000
C        2.0363200      -1.5828000      -0.1320300
C        0.8265000      -1.8016700       0.8160600
N       -0.0796300      -3.3350800       0.2610800
N       -1.3944300      -2.9372500       0.1794600
C       -1.5380200      -1.6348600      -0.3364900
C       -2.8898000      -0.9968800      -0.1983600
C       -3.6993700      -1.1785600       0.9388600
C       -4.8720300      -0.4367900       1.1065900
C       -5.2570000       0.5036100       0.1446200
C       -4.4738000       0.6778700      -0.9999500
C       -3.3087900      -0.0748500      -1.1732500
C       -0.1030400      -0.7324900       0.4277300
H        4.9271000      -0.7976900       0.2741600
H        4.5371000       0.8011500       0.9794800
H        4.1213300      -0.7037500       1.8477000
H        0.0921500       0.5589200      -1.3914100
H        2.6588100      -2.4608800      -0.3102300
H        1.0607700      -2.0475600       1.9106400
H        0.2315800      -3.2243400      -0.7096500
H       -1.9737600      -3.1790200       0.9930500
H       -1.1792700      -1.6243500      -1.3948200
H       -3.4251700      -1.8950500       1.7176000
H       -5.4794000      -0.5696900       2.0096800
H       -6.1622400       1.1076700       0.2910600
H       -4.7616000       1.4148900      -1.7548100
H       -2.7085600       0.0541800      -2.0742800
H       -0.5836400      -0.0675900       1.2249500
