23
dipolar_001434 reactant_2 @ TS geom
C       -1.6198700      -0.1023000       0.1576900
C       -1.9980500      -0.2160600      -1.2991200
C       -2.8963200       1.0679200      -1.4364200
C       -1.8675300       2.2310200      -1.3140900
C       -0.5163700       1.4774200      -1.0999000
C       -0.7251900       0.2630700      -2.0219800
C       -0.7389900       0.8720200       0.2791400
C       -0.5099300       1.5866500       1.5389200
O       -0.9249100       1.2448900       2.6394600
O        0.1245100       2.7604900       1.3435000
C        0.2771000       3.6024800       2.4855900
H       -2.1759000      -0.5404300       0.9592200
H       -2.4484400      -1.1507000      -1.6583700
H       -3.6375500       1.0610000      -0.6032000
H       -3.3888200       1.0661800      -2.3633800
H       -1.8186700       2.8168300      -2.1831800
H       -2.0505200       2.8800500      -0.4232700
H        0.4010000       2.0772200      -1.2608900
H       -0.9250000       0.5782900      -3.0645800
H        0.1126900      -0.4563000      -2.0575300
H        0.8670500       3.0997400       3.2555800
H        0.7836700       4.5017200       2.1296800
H       -0.7152000       3.8653500       2.8964600
