28
dipolar_001434 reactant_1 @ TS geom
C        3.5003100       2.5020900      -0.8463600
N        2.8650200       1.5637900       0.0563300
C        2.3757400       0.3860600      -0.3763700
O        2.5160900      -0.0106400      -1.5546500
C        1.6698600      -0.4622300       0.6120800
C        1.9852000      -0.3477700       2.0369000
C        2.6272400      -1.5652200       2.6437700
O        2.0207200       0.7389100       2.6145300
N        1.0386200      -1.4981800       0.0106800
C        0.0428900      -2.3340500       0.3433000
C       -0.5178700      -3.2013400      -0.7431800
C       -0.6104100      -2.2526500       1.6577800
C       -1.8787800      -3.0503300       1.8680400
O       -0.1120100      -1.6280500       2.6083700
H        3.9547500       3.3170800      -0.2586200
H        2.7966600       2.9405400      -1.5683100
H        4.3044500       2.0022900      -1.4161400
H        2.5571700       1.8916100       0.9717100
H        2.3096400      -2.4785900       2.1288800
H        3.7121100      -1.4186900       2.4195900
H        2.4631500      -1.5830200       3.6851100
H        1.3353100      -1.5642100      -0.9638000
H       -0.2153600      -4.1894600      -0.5226300
H       -0.1852100      -2.8756400      -1.7319000
H       -1.6557500      -3.1878400      -0.7806100
H       -1.6426800      -4.1253900       1.7864700
H       -2.2629700      -2.8645200       2.8978700
H       -2.6755800      -2.8338000       1.1479600
