28
dipolar_001434 reactant_1 (FRAG1 relaxed, reordered to d) type=dipole
C        2.5443200       2.1020200       1.4178700
N        2.0790000       0.8203000       0.9385900
C        0.9129000       0.6923400       0.2739700
O        2.6431200      -1.7035200       0.2399500
C        0.6077600      -0.6277800      -0.2815400
C       -1.7174700      -0.1133700      -0.8471800
C       -2.7424300       1.9544500       0.2857000
O        0.1395900       1.6693300       0.1209700
N       -0.5889400      -0.7490600      -0.9940300
C       -2.0149200       0.6507400       0.4216300
C        1.5159300      -1.7300400      -0.3135500
C       -2.7866500      -0.2488400      -1.8716100
C        1.0915800      -3.0006700      -1.0275900
O       -1.8330700       0.0895800       1.4914200
H        2.8804400       2.7628800       0.5991300
H        2.6879300      -0.0031800       0.9089400
H        3.3883500       1.9444100       2.1019800
H        1.7438200       2.6266500       1.9603400
H       -2.3748000       2.5367500      -0.5692400
H       -2.6436800       2.5262500       1.2176700
H       -2.9424900       0.7176100      -2.3809400
H       -0.5601400      -1.3867100      -1.7953900
H       -3.7432200      -0.5194900      -1.3967000
H        0.2147400      -3.4581500      -0.5421300
H        0.8258300      -2.8121400      -2.0818400
H       -2.5218900      -1.0038900      -2.6252800
H       -3.8120000       1.7384300       0.1186000
H        1.9271800      -3.7115600      -1.0026700
