23
dipolar_001434 reactant_2 (FRAG2 relaxed, reordered to d) type=dipolarophile
C        1.3837200      -0.4739000       0.0220300
C        0.0262500      -0.0156000      -0.2825400
C       -0.4052700       1.2510800      -0.4731000
C       -1.9149200       1.2055300      -0.5305500
C       -1.8884500      -0.5673400       1.1555100
C       -2.3756700       0.8933700       0.9370000
C       -1.2010300      -0.9103800      -0.2043400
C       -2.1328300      -0.1754800      -1.1905600
O        1.6541000      -1.6019400       0.4063600
O        2.3199600       0.4735300      -0.1645700
C        3.6728600       0.1064500       0.1271900
H        3.7800200      -0.1763600       1.1850000
H       -1.1881200      -0.6690500       1.9968000
H        0.2019900       2.1575000      -0.4591500
H       -1.9485300       1.6046200       1.6581800
H       -2.4077900       2.0751300      -0.9823800
H       -1.7755400      -0.2150000      -2.2303800
H       -2.7338000      -1.2482500       1.3345700
H       -3.4715100       0.9667100       1.0005800
H       -1.0166300      -1.9784400      -0.3695100
H       -3.1778400      -0.5179300      -1.1419200
H        3.9931300      -0.7346500      -0.5054500
H        4.2812900       0.9926400      -0.0888600
