64
dipolar_002817 TS complex (tags stripped)
C        3.2585400     -25.3563000     -10.3857400
N        3.2929600     -24.5904100      -9.1636000
C        2.1549700     -24.2693800      -8.5156000
O        1.0341300     -24.5399700      -8.9405400
N        2.3137800     -23.7783600      -7.2125500
C        0.3236000     -22.4890600      -6.1906800
C        0.8621500     -21.8555600      -5.3412100
N        3.4445900     -22.5863500      -5.6796600
C        3.2521100     -23.6182400      -4.7331900
C        3.5734800     -25.0431000      -5.1223200
O        3.0226400     -23.3222900      -3.5733700
N        3.0850600     -22.8160400      -6.8998300
C        3.5099900     -21.7444600      -7.8354500
C        0.8982100     -20.9575400      -4.2006900
C        2.2124400     -20.3608700      -3.8996200
N        3.1848100     -19.7881600      -3.6277900
C        0.3566100     -21.6735200      -2.9491700
C        0.3630100     -20.9827300      -1.7331900
C       -0.1964700     -21.5571400      -0.5912400
C       -0.7657100     -22.8330400      -0.6529800
C       -0.7635000     -23.5307100      -1.8631100
C       -0.2040700     -22.9559800      -3.0074600
C       -0.0542400     -19.7822700      -4.6320300
C       -1.5147800     -20.1667400      -4.9155700
C       -1.9242600     -20.7602500      -6.2851500
C       -2.0119000     -22.2928500      -6.4393700
C       -0.7358400     -22.9698000      -7.0664300
C       -0.5572900     -22.4328100      -8.4952400
O        0.2902000     -21.6241600      -8.8096100
O       -1.5074600     -22.8616800      -9.3157100
C       -1.4515900     -22.3997600     -10.6717700
C       -0.9681700     -24.4844400      -7.0159500
O       -1.8222700     -25.0618700      -7.6555900
O       -0.2101500     -25.0813400      -6.1012400
C       -0.3730600     -26.4991300      -5.9508600
H        2.6428200     -24.8449300     -11.1139200
H        4.2816000     -25.4311200     -10.7091500
H        2.8420000     -26.3548700     -10.1850200
H        4.1418900     -24.4242400      -8.6388700
H        4.1423200     -25.0610700      -6.0766900
H        4.1779400     -25.4557800      -4.3191400
H        2.6598300     -25.5906400      -5.2420800
H        4.5080900     -21.4014100      -7.5444400
H        2.7784100     -20.9029700      -7.6369700
H        3.4422400     -22.0547900      -8.8448400
H        0.8124400     -19.9939600      -1.7045400
H       -0.1811100     -20.9968400       0.3273000
H       -1.2030000     -23.2747600       0.2326100
H       -1.2032800     -24.5338400      -1.9245400
H       -0.2077400     -23.5312200      -3.9520300
H        0.0049600     -19.0711600      -3.8513100
H        0.4085000     -19.3393200      -5.5533800
H       -2.0402000     -19.2089300      -4.8270100
H       -1.8863200     -20.7997700      -4.1075400
H       -2.9429200     -20.4135600      -6.4758900
H       -1.3028500     -20.3240800      -7.0869500
H       -2.1119900     -22.7579700      -5.4291200
H       -2.8207900     -22.5925300      -7.0419500
H       -0.5183800     -22.7292800     -11.1374900
H       -2.3154700     -22.8570700     -11.1715200
H       -1.5261100     -21.3043900     -10.7075700
H       -0.1143000     -27.0111700      -6.8888700
H       -1.4116200     -26.7401900      -5.6744700
H        0.3115600     -26.8046700      -5.1502100
