16
dipolar_001558 reactant_2 (FRAG2 relaxed, reordered to d) type=dipole
C       -3.3910100       0.8402300       0.2250800
N       -2.5227500       0.6913400      -0.9291200
C       -0.5945100       0.1275200       0.3975000
O       -0.5382900       0.2435000      -1.9512400
C       -1.2141500       0.3573300      -0.9049700
N        0.6892200      -0.1946500       0.3551900
C        1.5579200      -0.4688700       1.3364800
C        2.8883300      -0.7855000       1.0348800
N        4.0061900      -1.0529400       0.8076800
H       -4.3912500       1.1189400      -0.1281000
H       -3.0377300       1.6307700       0.9059000
H       -3.4801800      -0.0971600       0.7968400
H       -2.9141400       0.8375700      -1.8547800
H        1.0364200      -0.2276200      -0.6184800
H        1.2104400      -0.4398200       2.3697000
H       -1.0933900       0.1994500       1.3610500
