16
dipolar_001558 reactant_1 (FRAG1 relaxed, reordered to d) type=dipolarophile
C        0.5043500       0.3645200      -0.0045000
Br      -0.6192800      -2.1312800       0.5230600
C       -0.6748400      -0.2855200      -0.0218000
C       -3.2156500      -0.6353600      -0.3995000
O        2.1411500      -0.1665200       1.6144500
C        1.8153700      -0.2657500       0.4507700
Br       0.7799300       2.1702100      -0.4965100
C       -2.0182400       0.2721400      -0.4191300
C        2.6382500      -0.9205800      -0.6153200
O       -2.1018300       1.4415900      -0.7461300
H       -3.0641500      -1.5022100      -1.0612800
H       -3.3922800      -1.0267800       0.6146900
H        2.0323600      -1.6438400      -1.1824700
H       -4.0908500      -0.0633100      -0.7315700
H        2.9743400      -0.1525400      -1.3319700
H        3.5105600      -1.4132900      -0.1663900
