16
dipolar_001558 reactant_1 @ TS geom
C       -0.4333500      -0.7643800       0.1882300
Br      -0.1748800      -2.3897800      -1.0125500
C       -1.8451200      -0.9514600       0.8413800
C       -3.0246800      -1.4202600       0.0234200
O       -1.9537900      -0.7361200       2.0444600
C       -0.3068000       0.5303800      -0.5016800
Br      -1.7727000       1.8098800      -0.2413600
C        0.6219000       0.8155100      -1.5682100
C        0.5107700       2.1141700      -2.3458300
O        1.5453900       0.0225900      -1.8334300
H       -3.0788000      -2.5666600       0.0633600
H       -3.0745100      -1.1501000      -1.0131800
H       -3.9969400      -1.1151800       0.5439400
H       -0.4253600       2.1782500      -2.9183400
H        0.5380200       2.9858900      -1.6726400
H        1.3655000       2.1862800      -3.0484800
