16
dipolar_000984 reactant_1 @ TS geom
C        3.6549200       1.7768400      -1.4930300
O        3.1743300       0.6258400      -0.7623600
C        2.3127000       0.8644100       0.2121700
O        1.8967400       1.9634200       0.5466400
C        1.9067100      -0.3838100       0.8893900
C        2.5425700      -1.6287200       0.6388100
N        3.0906900      -2.6378300       0.4210900
O        0.8419000      -0.4695500       1.6395300
C       -0.1616800       0.2693800       2.0453800
C       -1.2075700      -0.4701800       2.6605800
N       -2.1015200      -1.0452300       3.1417700
C       -0.3662300       1.6617000       1.8705300
N       -0.7204600       2.7744800       1.8730100
H        4.3400700       1.4002200      -2.2676600
H        2.8369600       2.3443900      -1.9390400
H        4.2190000       2.4253600      -0.7877500
