23
dipolar_000984 reactant_2 (FRAG2 relaxed, reordered to d) type=dipolarophile
C       -0.7018800       0.9310300       0.6374600
C        1.4301100      -0.3541300      -0.3441800
O        2.0213000      -0.0206300       0.8179800
O        2.0083600      -0.9765700      -1.2216400
C        3.3792300      -0.4405100       0.9928200
C        0.0421200       0.1146600      -0.4105700
C       -0.8618000      -0.2753500      -1.3364300
C       -2.2029500       0.2797200      -0.9184400
C       -1.7661700       1.6053700      -0.2539700
C       -2.6161900      -0.5488400       0.3490100
C       -1.5851500      -0.0921600       1.4201400
H        3.4563400      -1.5366600       0.9419100
H        3.6814800      -0.0870000       1.9856700
H        4.0248500       0.0030900       0.2204700
H       -0.6862100      -0.9698800      -2.1600900
H       -2.5886600      -1.6305700       0.1552600
H       -2.9727800       0.3244800      -1.6985300
H       -3.6437500      -0.2849800       0.6402200
H       -2.5725600       2.0884700       0.3188200
H       -1.3361500       2.3222900      -0.9692300
H       -0.0801100       1.5775000       1.2669700
H       -0.9822500      -0.9191800       1.8214600
H       -2.0818400       0.4062500       2.2658500
