16
dipolar_000984 reactant_1 (FRAG1 relaxed, reordered to d) type=dipole
C       -1.7297700      -0.9334200       0.0520200
O        0.1328800       0.5380700      -0.0499800
C       -0.2681100      -0.6922600       0.0537500
O       -2.4286000       0.1859400      -0.0366200
C        0.6128500      -1.7936300       0.1631500
C        2.5338600       0.4371400       0.0058800
N        1.3031200      -2.7273000       0.2535800
O       -2.1807500      -2.0589100       0.1281000
C        1.3041400       1.1288500      -0.0839300
C        1.2680300       2.5374600      -0.2098900
N        3.5740700      -0.0830100       0.0773300
C       -3.8624500       0.0512000      -0.0460200
N        1.2668800       3.6977600      -0.3118700
H       -4.2017900      -0.4404200       0.8764800
H       -4.2561700       1.0714900      -0.1058700
H       -4.1798100      -0.5365500      -0.9189200
