22
dipolar_002123 reactant_2 @ TS geom
C       -2.5133400       3.2695000       0.2468400
N       -2.0658100       2.1663900      -0.5817500
C       -2.1239900       0.9048000      -0.1294200
O       -2.7357400       0.5805600       0.8949500
C       -1.4323000      -0.1801200      -0.9502000
C       -1.9172100      -1.5649500      -0.9246200
C       -3.1997700      -1.9235600      -0.4586500
C       -3.5715300      -3.2664400      -0.4143900
C       -2.6797500      -4.2613900      -0.8288900
C       -1.4163600      -3.9107300      -1.3198200
C       -1.0390600      -2.5733400      -1.3747300
O       -0.7662600       0.0831400      -2.0710200
O        0.0349300       1.2128400      -1.9343100
H       -2.2660400       4.2127700      -0.2705600
H       -3.5712000       3.2135800       0.4369200
H       -1.9688200       3.2600200       1.2157700
H       -1.3822600       2.3352500      -1.3460500
H       -3.9213100      -1.1653300      -0.1445400
H       -4.5615400      -3.5554300      -0.0333900
H       -2.9524800      -5.3177600      -0.7498700
H       -0.7066700      -4.6759500      -1.6251700
H       -0.0603500      -2.2810100      -1.7376600
