49
dipolar_002123 TS complex (tags stripped)
C       -2.5133400       3.2695000       0.2468400
N       -2.0658100       2.1663900      -0.5817500
C       -2.1239900       0.9048000      -0.1294200
O       -2.7357400       0.5805600       0.8949500
C       -1.4323000      -0.1801200      -0.9502000
C       -1.9172100      -1.5649500      -0.9246200
C       -3.1997700      -1.9235600      -0.4586500
C       -3.5715300      -3.2664400      -0.4143900
C       -2.6797500      -4.2613900      -0.8288900
C       -1.4163600      -3.9107300      -1.3198200
C       -1.0390600      -2.5733400      -1.3747300
O       -0.7662600       0.0831400      -2.0710200
O        0.0349300       1.2128400      -1.9343100
C        0.9649800       1.0194100      -0.5546700
C        0.5213100       0.1419700       0.2404800
C        0.8634900      -0.5670200       1.5196700
Cl       1.3940100      -2.2609700       1.0428600
C       -0.4160900      -0.6291000       2.4169000
C       -1.1998500      -1.8973100       2.5391000
O       -0.7133800       0.3910600       3.0067300
C        1.9799600       0.0704800       2.3743600
C        3.4254000       0.0401300       1.8723100
C        3.7277900       0.6500200       0.4988900
C        3.1353700       2.0517200       0.2706300
C        2.0243500       2.0571000      -0.8310300
C        2.6413300       1.7820100      -2.1489400
N        3.1647000       1.5378300      -3.1543900
C        1.3805200       3.3889800      -0.8740600
N        0.8523900       4.4196300      -0.8633100
H       -2.2660400       4.2127700      -0.2705600
H       -3.5712000       3.2135800       0.4369200
H       -1.9688200       3.2600200       1.2157700
H       -1.3822600       2.3352500      -1.3460500
H       -3.9213100      -1.1653300      -0.1445400
H       -4.5615400      -3.5554300      -0.0333900
H       -2.9524800      -5.3177600      -0.7498700
H       -0.7066700      -4.6759500      -1.6251700
H       -0.0603500      -2.2810100      -1.7376600
H       -1.3826400      -2.3527000       1.5604500
H       -0.6249100      -2.6390600       3.1297700
H       -2.1526300      -1.6915300       3.0553200
H        2.0093800      -0.4783800       3.3896500
H        1.6611300       1.0666700       2.6169900
H        4.0346100       0.5722300       2.6466800
H        3.8173400      -0.9921500       1.8706200
H        4.8396700       0.7161800       0.4143500
H        3.4149900      -0.0176000      -0.2846600
H        3.9419200       2.7779600      -0.0781000
H        2.7276900       2.4999700       1.1801700
