14
dipolar_001534 reactant_2 (FRAG2 relaxed, reordered to d) type=dipole
C       -0.6769800       0.1052400      -0.1548700
C       -1.8671900       0.8255800      -0.5657700
C       -3.1362900       0.0188300      -0.6252200
O       -1.0703300      -2.2627900       0.3159700
O        0.5224700       0.7976000      -0.0784400
C        1.4438800      -0.0248200       0.2957500
C        2.7894200       0.3993800       0.4600500
N        3.8929300       0.7324600       0.5975000
O        1.0410100      -1.2265100       0.4947400
C       -0.4659500      -1.2384300       0.1977700
O       -1.8130300       2.0218500      -0.8406800
H       -3.9568600       0.6621300      -0.9673900
H       -3.0193500      -0.8368800      -1.3090000
H       -3.3736200      -0.3932000       0.3688400
