31
dipolar_001534 reactant_1 (FRAG1 relaxed, reordered to d) type=dipolarophile
C        2.1848300       0.6401500      -0.3731100
C        1.1345000      -0.4915500      -0.2168400
O        2.5861500       0.9396000      -1.4789000
C        0.1092600      -0.1768700       0.7542800
Cl       2.1934300      -1.9265800       0.3424200
C       -0.9933400       0.2116900       1.0844600
C       -2.6803600       1.8621500       1.8879500
C       -2.3964100       0.6266800       1.0199000
C       -3.3119600      -0.5361800       1.4463200
C       -2.0726900      -0.0212700      -1.5391100
C       -2.6068400       0.9781200      -0.4903500
C       -0.6068700       0.1351500      -2.0358200
C        0.4523600      -0.8743700      -1.5393600
C        2.6434400       1.3242700       0.8806700
H        3.5827500       1.8599300       0.6920800
H        1.8687800       2.0519700       1.1753900
H        2.7576600       0.6124000       1.7097300
H       -2.1533200       1.9657000      -0.6770100
H       -0.2550700       1.1642500      -1.8532600
H       -2.0068000       2.6926300       1.6274100
H       -3.7180200       2.1964500       1.7326000
H       -3.1223100      -0.8189200       2.4929300
H       -2.5497100       1.6303900       2.9561500
H       -4.3651000      -0.2273400       1.3564200
H       -3.6938800       1.1021100      -0.6288200
H       -3.1545800      -1.4248900       0.8177100
H       -0.0115400      -1.8621600      -1.4020200
H       -2.2394100      -1.0560600      -1.1956600
H       -2.7188800       0.0948800      -2.4231500
H       -0.6223800       0.0250900      -3.1311300
H        1.2453900      -0.9831100      -2.2924600
