17
dipolar_000930 reactant_1 @ TS geom
C       -2.1175100       0.0394800      -2.4542300
N       -0.6783200       0.2344000      -2.1805700
C        0.1399800      -0.7731400      -2.4506400
C       -0.3366900      -2.0824400      -3.0050600
C        1.5281000      -0.7193400      -2.1017500
N        2.6783100      -0.8347900      -1.9413400
C       -0.3272900       1.4799100      -1.6611100
C       -1.3261100       2.3664100      -1.2100000
N       -2.0959600       3.1588000      -0.8157200
C        1.0053000       1.9191800      -1.5627000
N        2.0738300       2.4004000      -1.5192300
H       -2.2309400      -0.5397100      -3.3682300
H       -2.5864400       1.0206100      -2.5971000
H       -2.5673300      -0.4758800      -1.6014000
H       -1.2937900      -2.4302600      -2.5498800
H        0.4171900      -2.8766500      -2.7645500
H       -0.4162800      -1.9461300      -4.0329900
