23
dipolar_000930 reactant_2 @ TS geom
C        0.0950600      -1.1043000       0.3979300
C       -0.1438900       0.0101200       0.7362200
C       -0.3194400       1.0268900       1.7799900
C       -1.7572600       1.2874100       1.9776500
N       -2.8927200       1.4348800       2.1600100
C        0.3780000       2.3096300       1.5556200
N        0.9457100       3.3146200       1.4617200
C        0.2839700       0.3243200       3.0640800
C        1.6622600      -0.3108600       2.7865500
C        1.7269800      -1.8568800       2.7722300
C        0.6474600      -2.6944700       2.0726400
C        0.5234500      -2.4995200       0.5320900
C       -0.4449200      -3.4535900      -0.0156900
N       -1.2222000      -4.2281500      -0.3933800
H       -0.4551800      -0.4545600       3.3248300
H        0.3058000       1.0616900       3.8240600
H        2.3501600       0.0325300       3.5594900
H        2.0833300       0.0838400       1.8326300
H        2.7064700      -2.1552400       2.3597800
H        1.7084800      -2.2011200       3.8095500
H        0.8332200      -3.7295700       2.2224800
H       -0.3573500      -2.4556200       2.4967200
H        1.4819100      -2.6535600       0.0379000
