22
dipolar_001926 reactant_2 (FRAG2 relaxed, reordered to d) type=dipolarophile
C       -0.4032500      -0.4689200       0.0949700
C       -1.4714000      -0.3059400       1.1729300
F       -0.9345400      -0.3721800       2.3991200
F       -0.2013600      -2.7425200       0.6533700
F        0.8482300      -2.0981100      -1.1168100
C       -0.2584500      -1.9027400      -0.3935000
F       -1.3011300      -2.2650300      -1.1522200
F       -2.3902800      -1.2798100       1.0860700
F       -2.1243700       0.8561300       1.0697300
C        0.3732000       0.5258800      -0.3579000
C        1.3249300       0.4017300      -1.5454600
O        0.8531400       0.6303300      -2.6581300
N        2.6072500       0.1395400      -1.2875200
C        3.1828200      -0.1999200       0.0006400
C        0.2888100       1.9684200       0.1397800
F        1.4033100       2.6353700      -0.2012000
F        0.1828200       2.0404400       1.4721000
F       -0.7442400       2.6208500      -0.4035900
H        3.2115000       0.0974200      -2.1070300
H        2.4549100      -0.0247100       0.8022000
H        4.0675400       0.4227200       0.1967900
H        3.4813700      -1.2593700       0.0321200
