16
dipolar_001926 reactant_1 @ TS geom
C        4.4180600       2.1609700       0.6421100
N        3.4415400       1.1916800       1.1006800
C        3.2005500       0.0620400       0.4065200
O        3.8853800      -0.3267700      -0.5621600
C        2.0427200      -0.7148600       0.8711600
N        1.6650600      -1.7199300       0.1085600
C        0.6340700      -2.5707200       0.2714000
C        0.3565100      -3.5468800      -0.6958700
N        0.0846200      -4.3640300      -1.4955700
H        5.3652100       1.6394600       0.4254800
H        4.1102900       2.7288700      -0.2218200
H        4.6312200       2.8781100       1.4831700
H        2.6475200       1.5590800       1.6761200
H        1.4815700      -0.4850700       1.7828000
H        2.1731000      -1.7693100      -0.7862100
H        0.1162600      -2.5324700       1.2495400
