38
dipolar_001926 TS complex (tags stripped)
C        4.4180600       2.1609700       0.6421100
N        3.4415400       1.1916800       1.1006800
C        3.2005500       0.0620400       0.4065200
O        3.8853800      -0.3267700      -0.5621600
C        2.0427200      -0.7148600       0.8711600
N        1.6650600      -1.7199300       0.1085600
C        0.6340700      -2.5707200       0.2714000
C        0.3565100      -3.5468800      -0.6958700
N        0.0846200      -4.3640300      -1.4955700
C       -1.1481900      -0.2904100      -0.0368100
C       -1.6747500      -0.8562700      -1.3570800
F       -0.7257500      -0.9991100      -2.2844800
F       -2.2730400      -2.0455600      -1.2180800
F       -2.6112200      -0.0139400      -1.8683000
C       -1.9642000      -0.6863600       1.1934800
F       -2.2258300      -1.9889300       1.2628600
F       -1.3415700      -0.3497900       2.3306400
F       -3.1689900      -0.0469500       1.1957900
C       -0.2872200       0.7472600       0.0348700
C       -0.2092400       1.6675600       1.2652700
O        0.7420000       1.7282700       2.0406000
N       -1.2913500       2.4615400       1.3633500
C       -1.4347200       3.4248500       2.4326200
C        0.4496000       1.3405600      -1.1694600
F        1.2014100       2.3852000      -0.7808200
F       -0.4247500       1.8181600      -2.0967800
F        1.2587900       0.4851000      -1.7938100
H        5.3652100       1.6394600       0.4254800
H        4.1102900       2.7288700      -0.2218200
H        4.6312200       2.8781100       1.4831700
H        2.6475200       1.5590800       1.6761200
H        1.4815700      -0.4850700       1.7828000
H        2.1731000      -1.7693100      -0.7862100
H        0.1162600      -2.5324700       1.2495400
H       -2.0157400       2.2683600       0.6327500
H       -1.5684000       2.8983500       3.3455400
H       -0.6048600       4.0804400       2.4180200
H       -2.3725400       3.9683300       2.1552500
