21
dipolar_002784 reactant_2 @ TS geom
C        0.9134200       0.8406700      -0.0574200
C       -0.2235100       0.2484800       0.1940500
C       -1.3475800       0.4172800       1.1473900
Br      -2.9835400       0.9072800       0.0382800
Br      -1.7665500      -1.3614900       1.9917200
C       -1.2723600       1.4180800       2.3065600
C       -1.1957600       2.9172600       1.9877400
C       -0.0015200       3.4188100       1.1668200
C        1.3460400       2.8410900       1.6187500
C        1.9136400       1.7672000       0.6442500
C        2.9317800       0.9754900       1.3529500
N        3.7286200       0.3994500       1.9685800
H       -2.2079400       1.2970500       2.9619000
H       -0.4526500       1.1109300       2.9414700
H       -1.1764300       3.4329100       2.9772700
H       -2.1230000       3.2586600       1.5040200
H       -0.1463700       3.2141100       0.1081300
H        0.0214400       4.5194200       1.2645500
H        2.1200900       3.6668600       1.6846800
H        1.2895700       2.4400200       2.6396100
H        2.4658600       2.2956100      -0.1610400
