49
dipolar_002784 TS complex (tags stripped)
C        0.5478000      -4.1388700       0.7596800
O       -0.0733800      -3.2522800      -0.1826400
C        0.5967800      -2.1406400      -0.4795600
O        1.7386200      -1.9515900      -0.1033000
C       -0.2743100      -1.1805200      -1.2843600
C       -1.5808400      -1.7579500      -1.7718900
N        0.3599700      -0.3962800      -2.2475700
C        1.4260700       0.4058700      -1.8005600
C        1.4163900       1.7958500      -2.4425700
C        0.0999100       2.3228300      -2.9512200
O        2.4179500       2.4875500      -2.4194300
C        2.7902900      -0.2636100      -1.8376400
O        3.7846300       0.2139300      -1.3259000
O        2.7986300      -1.3963300      -2.5386000
C        4.0004700      -2.1911700      -2.4420900
C        0.9134200       0.8406700      -0.0574200
C       -0.2235100       0.2484800       0.1940500
C       -1.3475800       0.4172800       1.1473900
Br      -2.9835400       0.9072800       0.0382800
Br      -1.7665500      -1.3614900       1.9917200
C       -1.2723600       1.4180800       2.3065600
C       -1.1957600       2.9172600       1.9877400
C       -0.0015200       3.4188100       1.1668200
C        1.3460400       2.8410900       1.6187500
C        1.9136400       1.7672000       0.6442500
C        2.9317800       0.9754900       1.3529500
N        3.7286200       0.3994500       1.9685800
H        1.4906600      -4.5357000       0.3716900
H        0.7473100      -3.5855900       1.7006500
H       -0.1702900      -4.9397100       0.9434700
H       -2.1845200      -2.0242600      -0.9397500
H       -2.0949000      -1.0531800      -2.4387900
H       -1.4558300      -2.7260100      -2.3974300
H       -0.3394200       0.0583400      -2.8493100
H       -0.6832600       2.2098300      -2.1717800
H       -0.2543400       1.7972200      -3.8515500
H        0.2187400       3.3865900      -3.1855500
H        4.2265900      -2.4229800      -1.3732200
H        3.8237400      -3.1420500      -2.9746200
H        4.8651600      -1.6764800      -2.8766500
H       -2.2079400       1.2970500       2.9619000
H       -0.4526500       1.1109300       2.9414700
H       -1.1764300       3.4329100       2.9772700
H       -2.1230000       3.2586600       1.5040200
H       -0.1463700       3.2141100       0.1081300
H        0.0214400       4.5194200       1.2645500
H        2.1200900       3.6668600       1.6846800
H        1.2895700       2.4400200       2.6396100
H        2.4658600       2.2956100      -0.1610400
