26
dipolar_001699 reactant_1 (FRAG1 relaxed, reordered to d) type=dipole
C       -1.7299300       0.3979400       2.7693900
O       -1.5224700       0.2054100       1.3599800
C       -0.3614400      -0.3203400       0.9962200
O        0.6020900       1.9276900       0.4983600
C        1.7048700       1.4451500       0.2071500
C        2.9789900       2.0232000       0.7562000
C       -0.2839900      -0.5113700      -0.4890400
O        0.5013500      -0.6925800       1.7634300
N        0.8485800      -0.2545500      -1.1256600
C        1.0919700      -0.7313600      -2.5073700
C       -1.4639900      -1.1122000      -1.1946700
O       -1.6599600      -0.8858200      -2.3783400
N        1.9083200       0.3879600      -0.6401500
C       -2.3886100      -1.9828300      -0.3892600
H       -2.7300600       0.8337600       2.8680500
H       -0.9696400       1.0848000       3.1669100
H       -3.1254000      -1.3503000       0.1299700
H        3.8504000       1.7725700       0.1388100
H        3.1290400       1.5982000       1.7641300
H        2.8773300       3.1121700       0.8653300
H       -1.8493300      -2.5644300       0.3727900
H        0.6097100      -1.6969900      -2.6794000
H        2.1778400      -0.8125300      -2.6064300
H        0.7065000       0.0151900      -3.2123600
H       -2.9229800      -2.6522300      -1.0761900
H       -1.6761900      -0.5639400       3.2983900
