26
dipolar_001699 reactant_1 @ TS geom
C       -4.4233800       2.5481500       1.6281700
O       -3.9102000       1.3313700       1.0837600
C       -2.5993900       1.1032000       1.2350900
O       -1.8402200       1.8430700       1.8071300
C       -2.2227100      -0.2188100       0.6255700
C       -2.1734200      -1.3305400       1.5912100
C       -2.0604900      -2.7648900       1.1595900
O       -2.3346600      -1.0383600       2.7809800
N       -1.4539100      -1.3708400      -1.1816900
C       -1.5447600      -1.7791700      -2.4869000
C       -2.8846200      -1.7311400      -3.1806900
O       -0.5717700      -2.3080600      -3.0114000
N       -2.0142500      -0.3143400      -0.6870100
C       -2.3465800       0.8562300      -1.5430400
H       -5.4779100       2.4825700       1.3725200
H       -4.2607500       2.5493200       2.7013300
H       -3.9329700       3.3837900       1.1436800
H       -1.0364800      -3.0099000       0.8511500
H       -2.7041100      -2.9439900       0.2745100
H       -2.3679000      -3.3942500       1.9909100
H       -3.6686600      -1.6547300      -2.3940400
H       -2.8862700      -0.8979100      -3.8113100
H       -2.9691300      -2.6699700      -3.7048600
H       -2.0284300       1.7924400      -1.0230100
H       -1.7727500       0.7930600      -2.4678400
H       -3.4116800       0.8828300      -1.7221000
