%chk=dist_24_reactant_1.chk
%mem=2GB
%nprocshared=2
#P AM1 Freq NoSymm

dipolar_000263 AM1 SPE on distorted reactant_1 @ TS geom (n=17)

0 1
 C       -2.3306600       0.4886800       0.2067900
 C       -2.9153500       0.1018800      -1.1203600
 C       -2.8217200      -0.1283700       1.4827400
 N       -1.3202100       1.2811400       0.2383000
 C       -0.2988100       1.9557400       0.2626000
 C        0.4630200       3.1198100       0.2888200
 C        1.0284500       3.4837600       1.6427500
 O        0.8029300       3.6981100      -0.7681000
 H       -3.8656400       0.5798200      -1.1722700
 H       -3.0731300      -1.0055300      -1.1900100
 H       -2.2691100       0.3996400      -1.9655700
 H       -2.9712800      -1.2352900       1.3675300
 H       -2.1140300       0.0229800       2.3182800
 H       -3.7637300       0.3182200       1.6841100
 H        1.4233700       4.4944800       1.5966000
 H        1.8376500       2.7745200       1.9041500
 H        0.2477600       3.3887900       2.4140500

