%chk=dist_0_reactant_1.chk
%mem=2GB
%nprocshared=2
#P AM1 Freq NoSymm

dipolar_000009 AM1 SPE on distorted reactant_1 @ TS geom (n=12)

0 1
 C        0.2016000       1.5725200       0.5553800
 C       -1.1215300       0.9925500       0.4058700
 C       -1.9746100       1.4706600      -0.7795400
 C       -1.9497600       0.8031100       1.6857000
 H        0.5447000       2.2986700      -0.2257400
 H        0.5575100       1.8290400       1.5758000
 H       -2.7199300       0.6899400      -1.0010100
 H       -2.5653700       2.4137000      -0.6093300
 H       -1.3548500       1.6352300      -1.6648900
 H       -1.3061100       0.5077300       2.5193700
 H       -2.6878400       0.0108100       1.4991700
 H       -2.5387500       1.6998400       2.0238400

