%chk=dist_34_reactant_2.chk
%mem=2GB
%nprocshared=2
#P AM1 Freq NoSymm

dipolar_000393 AM1 SPE on distorted reactant_2 @ TS geom (n=14)

0 1
 C        1.5120700      -0.1980500      -0.6337400
 C        1.9877200      -1.4740700      -1.0322100
 N        2.3844600      -2.4987200      -1.4323300
 C        2.4651000       1.0062800      -0.3469700
 C        3.0598700       0.8380000       1.0585200
 C        2.0361300       1.0397800       1.8972600
 C        0.8331300       1.3591200       0.9963500
 O        1.4734800       2.0244800      -0.1035600
 C        0.3299700       0.0834500       0.1808300
 Br      -0.4344800      -1.3597700       1.2685800
 H        3.1303000       1.2610400      -1.1685700
 H        4.1228700       0.6189900       1.2820000
 H        2.0434100       1.0340200       3.0039700
 H        0.0110100       1.9129400       1.4232200

