%chk=dist_171_reactant_1.chk
%mem=2GB
%nprocshared=2
#P AM1 Freq NoSymm

dipolar_002408 AM1 SPE on distorted reactant_1 @ TS geom (n=29)

0 1
 C        0.0300600      -0.2112900      -0.2727200
 C        1.0236500      -1.0712500      -0.4453400
 C        1.3047600      -2.4334600      -1.1105000
 C        2.0216000      -2.1891400      -2.4559000
 C        0.1522900      -3.4188400      -1.3060200
 C       -0.6516900      -3.7924900      -0.0606200
 C       -1.4912300      -2.6683100       0.5766600
 C       -2.1377500      -1.7186100      -0.4407900
 C       -1.4890400      -0.2868100      -0.5694500
 C       -2.2598900       0.6237600       0.4343400
 F       -3.5901100       0.5318400       0.3136100
 F       -1.9553100       0.2617300       1.6933500
 F       -1.9623700       1.9183100       0.2835600
 C       -1.7678200       0.2188200      -2.0118400
 F       -1.2053700      -0.6041900      -2.9125900
 F       -1.2651400       1.4423900      -2.2290500
 F       -3.0778200       0.2694700      -2.2844100
 H        2.0441300      -2.9164300      -0.4286000
 H        2.4174600      -3.1536000      -2.8669600
 H        2.8878700      -1.5111800      -2.3652200
 H        1.3339200      -1.7712300      -3.1927100
 H       -0.4931100      -3.0686400      -2.1084500
 H        0.6124900      -4.3694400      -1.7019200
 H        0.0200600      -4.2010300       0.7110900
 H       -1.3245600      -4.6172100      -0.3501000
 H       -2.2944600      -3.1507700       1.1666100
 H       -0.9054600      -2.0958900       1.2865300
 H       -3.2312900      -1.5863300      -0.1908400
 H       -2.1703800      -2.1850100      -1.4380500

