%chk=dist_50_reactant_1.chk
%mem=2GB
%nprocshared=2
#P AM1 Freq NoSymm

dipolar_000551 AM1 SPE on distorted reactant_1 @ TS geom (n=16)

0 1
 C        4.1604500      -0.2372300       0.8550100
 C        2.8145200      -0.2842900       0.2230500
 C        1.9598400       0.6836400      -0.1463700
 Br       2.1505800       2.5489700       0.0196700
 C        0.6965700      -0.0135700      -0.7012000
 O        1.3245600      -1.1569800      -1.3219000
 C        2.0363200      -1.5828000      -0.1320300
 C        0.8265000      -1.8016700       0.8160600
 C       -0.1030400      -0.7324900       0.4277300
 H        4.9271000      -0.7976900       0.2741600
 H        4.5371000       0.8011500       0.9794800
 H        4.1213300      -0.7037500       1.8477000
 H        0.0921500       0.5589200      -1.3914100
 H        2.6588100      -2.4608800      -0.3102300
 H        1.0607700      -2.0475600       1.9106400
 H       -0.5836400      -0.0675900       1.2249500

