%chk=dist_138_reactant_2.chk
%mem=2GB
%nprocshared=2
#P AM1 Freq NoSymm

dipolar_001824 AM1 SPE on distorted reactant_2 @ TS geom (n=27)

0 1
 C        1.3501100      -0.1250300      -0.5436100
 C        2.2342100       0.8361800       0.1251900
 C        3.5838500       0.4882800       0.3402200
 C        4.4910500       1.4129200       0.8588000
 C        4.0688700       2.7010700       1.1979200
 C        2.7229300       3.0475000       1.0314100
 C        1.8144700       2.1304600       0.5046900
 C        1.7597500      -1.5750900      -0.8312100
 C        2.3131600      -1.4908600      -2.2968200
 C        1.0295300      -1.2270600      -3.1383200
 C       -0.0936500      -1.1957500      -2.0469100
 C        0.4174300      -2.2798500      -1.0835200
 C        0.2466400       0.0615800      -1.2698400
 Cl      -0.4685600       1.5930300      -1.7870700
 H        3.9097000      -0.5193400       0.0840000
 H        5.5241500       1.1132900       0.9713000
 H        4.7826800       3.4219500       1.5751500
 H        2.3796700       4.0487500       1.3003500
 H        0.7575100       2.4150400       0.4287600
 H        2.4184100      -2.0603600      -0.0849600
 H        3.0293800      -0.6327900      -2.3358500
 H        2.7864000      -2.3801300      -2.5511900
 H        1.0297700      -0.2261700      -3.6318700
 H        0.8341500      -1.9832300      -3.8284400
 H       -1.1421100      -1.2926900      -2.3969400
 H        0.5583200      -3.2590800      -1.5982100
 H       -0.2001900      -2.4770600      -0.1862400

