%chk=dist_175_reactant_2.chk
%mem=2GB
%nprocshared=2
#P AM1 Freq NoSymm

dipolar_002460 AM1 SPE on distorted reactant_2 @ TS geom (n=30)

0 1
 C        1.9627000       0.9386800       0.1775700
 C        2.3355200       0.9394200      -1.2138200
 C        3.7118400       0.7072100      -1.4767700
 C        4.2452700       0.9200200      -2.7404000
 C        3.4209900       1.3499700      -3.7891000
 C        2.0554300       1.5422600      -3.5570700
 C        1.5073000       1.3282100      -2.2936800
 N        0.7877700       1.2561200       0.6993800
 C        0.8256900       1.6026100       2.1477100
 N       -0.3153400       1.2303200      -0.0374100
 C       -1.4904900       1.8462100       0.3670000
 C       -1.6142800       3.0013300       1.1723500
 C       -2.8733700       3.5425300       1.4431200
 C       -4.0346700       2.9676400       0.9194800
 C       -3.9184100       1.8513100       0.0816400
 C       -2.6698600       1.3099800      -0.2026800
 H        2.6962800       0.5804100       0.8946400
 H        4.3519800       0.3788600      -0.6505800
 H        5.3118900       0.7764200      -2.8987300
 H        3.8402500       1.5321300      -4.7730100
 H        1.4027200       1.8761300      -4.3592500
 H        0.4421300       1.4476700      -2.1181600
 H       -0.1324100       1.5044900       2.6103200
 H        1.5627900       0.9474200       2.6154900
 H        1.1948700       2.6539200       2.2065300
 H       -0.7282100       3.4994300       1.5703300
 H       -2.9391400       4.4394400       2.0614800
 H       -5.0069400       3.3901200       1.1372300
 H       -4.8076600       1.3941500      -0.3589400
 H       -2.5741700       0.4468900      -0.8716800

