%chk=dist_9_reactant_1.chk
%mem=2GB
%nprocshared=2
#P AM1 Freq NoSymm

dipolar_000078 AM1 SPE on distorted reactant_1 @ TS geom (n=7)

0 1
 C        1.5837600      -0.9609400       1.4186900
 C        2.5674500      -2.0469600       1.2315500
 C        0.8466200      -0.0888700       1.7008400
 F        0.1327800       0.8635600       2.2994000
 H        2.8783700      -2.1892500       2.3040900
 H        2.1495300      -2.9643300       0.8724300
 H        3.4325900      -1.7539400       0.6661400

