%chk=dist_161_reactant_2.chk
%mem=2GB
%nprocshared=2
#P AM1 Freq NoSymm

dipolar_002247 AM1 SPE on distorted reactant_2 @ TS geom (n=25)

0 1
 C        2.6612400       3.2624300       2.5670800
 O        2.4534200       2.0837200       1.7774700
 C        1.7470200       2.2310400       0.6559000
 O        1.3628700       3.3185600       0.2497400
 C        1.3896700       0.9547100      -0.0340500
 C        2.2792500      -0.2440300       0.1238500
 C        2.4968000      -0.7880900       1.4052700
 C        3.2159100      -1.9696300       1.5706900
 C        3.7505900      -2.6395200       0.4647900
 C        3.5726600      -2.0973500      -0.8103600
 C        2.8515300      -0.9097200      -0.9811600
 N        0.9828500       1.2575700      -1.3836800
 C        0.0115400       0.2649100      -1.7796600
 C       -0.6509400       0.7399800      -3.0156100
 N       -1.2108000       1.1181200      -3.9586100
 H        3.2299700       4.0155900       2.0066200
 H        1.6920000       3.6884500       2.8722200
 H        3.2237000       2.9361700       3.4487100
 H        2.0745900      -0.2813500       2.2624700
 H        3.3477100      -2.3710100       2.5766100
 H        4.3054100      -3.5740200       0.6078300
 H        4.0047300      -2.6119600      -1.6804500
 H        2.7562300      -0.5102400      -1.9924500
 H        0.6482300       2.2304900      -1.4207700
 H        0.5509900      -0.6845200      -2.0370100

