%chk=dist_146_reactant_1.chk
%mem=2GB
%nprocshared=2
#P AM1 Freq NoSymm

dipolar_001928 AM1 SPE on distorted reactant_1 @ TS geom (n=13)

0 1
 C       -6.5301900      -2.8031500       8.9263400
 N       -7.2517700      -3.7910500       8.1412400
 C       -6.9338400      -4.0014600       6.8639600
 O       -6.0947500      -3.3954900       6.1748800
 C       -7.6865400      -5.0391900       6.1645400
 N       -8.3449500      -5.6024400       5.3476500
 N       -9.2173600      -6.2613300       4.7135700
 C       -9.0254000      -6.6820600       3.4840700
 N       -9.0410400      -7.1185600       2.3928400
 H       -7.1436500      -2.4517500       9.7573900
 H       -6.2942300      -1.9378500       8.2706900
 H       -5.5818800      -3.2021400       9.3115900
 H       -7.7941100      -4.5130100       8.6829200

