%chk=dist_163_reactant_2.chk
%mem=2GB
%nprocshared=2
#P AM1 Freq NoSymm

dipolar_002277 AM1 SPE on distorted reactant_2 @ TS geom (n=10)

0 1
 C        0.4137800       1.6532600       0.6799200
 N        0.7466400       1.9258200       1.8600100
 C        1.3076100       1.2390200       2.8642300
 C        0.4004900       0.5994400       3.8923900
 C        2.5702200       1.7606000       3.3056000
 N        3.5871900       2.1856300       3.6841900
 H       -0.1911400       2.6087300       0.1240900
 H       -0.0056800       1.2950600       4.6610600
 H        0.9749200      -0.1737300       4.4040400
 H       -0.4449400       0.1387200       3.3637500

