%chk=dist_184_reactant_2.chk
%mem=2GB
%nprocshared=2
#P AM1 Freq NoSymm

dipolar_002646 AM1 SPE on distorted reactant_2 @ TS geom (n=29)

0 1
 C       -8.5308600      -1.1391300      10.2744400
 N       -8.1446000      -2.0871500       9.2296900
 C       -8.3434000      -1.8149600       7.9389000
 O       -8.9079800      -0.8235400       7.4990500
 C       -7.7805400      -2.8134800       6.9244300
 N       -8.5370500      -3.6345500       6.3483400
 C       -8.4096900      -4.4897400       5.3310500
 C       -9.0237800      -3.9332000       4.0733400
 O       -9.4469800      -2.7955900       4.0065600
 O       -9.0539400      -4.7933100       3.0634600
 C       -9.5946300      -4.3165300       1.8208800
 C       -8.1440300      -5.9114600       5.6513700
 C       -8.4952700      -6.9835400       4.8088700
 C       -8.0964900      -8.2857700       5.1209000
 C       -7.3561000      -8.5449500       6.2757600
 C       -7.0357000      -7.4908300       7.1403600
 C       -7.4329000      -6.1927400       6.8389700
 H       -8.2286200      -1.5349900      11.2784000
 H       -9.6022300      -0.9026300      10.3248400
 H       -7.9863700      -0.1643700      10.1522200
 H       -7.6650700      -2.9076100       9.5095200
 H       -9.5192100      -5.1525400       1.1172300
 H       -9.0038900      -3.4631000       1.4685800
 H      -10.6491400      -4.0108400       1.9351400
 H       -9.0928600      -6.8226400       3.9138600
 H       -8.3575800      -9.1134500       4.4501100
 H       -7.0127000      -9.5608300       6.5051300
 H       -6.4522700      -7.6698500       8.0425100
 H       -7.1763900      -5.3819600       7.5124100

