%chk=dist_129_reactant_2.chk
%mem=2GB
%nprocshared=2
#P AM1 Freq NoSymm

dipolar_001699 AM1 SPE on distorted reactant_2 @ TS geom (n=23)

0 1
 C        0.6670400      -0.4445100       0.9730100
 C        0.9911600       1.0175900       0.5782300
 O        0.5832000       1.0340600      -0.7933800
 C        1.3329600      -0.1112000      -1.1844600
 C        2.7544300       0.3267700      -0.7244300
 C        3.9790700      -0.2357900      -1.3314100
 C        3.8327300      -1.6076400      -1.9358000
 O        5.0451400       0.3782900      -1.3486800
 C        2.5286100       1.0367200       0.4080100
 C        3.3537400       1.4484000       1.5600500
 C        4.8433900       1.5421200       1.4446800
 O        2.7711100       1.6824900       2.6149100
 C        0.8914900      -1.1493700      -0.1177700
 H        0.3887400      -0.7695200       1.9381900
 H        0.5274700       1.8425100       1.1479300
 H        1.1943000      -0.3045100      -2.2834400
 H        3.3847600      -2.3246600      -1.2114100
 H        4.8024400      -1.9793900      -2.2747000
 H        3.1285000      -1.5816800      -2.7971500
 H        5.2444100       0.5335900       1.2288100
 H        5.2365300       1.9206700       2.3751400
 H        5.0874400       2.1701600       0.5913900
 H        0.8487900      -2.1960400      -0.3517700

