%chk=dist_105_reactant_2.chk
%mem=2GB
%nprocshared=2
#P AM1 Freq NoSymm

dipolar_001392 AM1 SPE on distorted reactant_2 @ TS geom (n=27)

0 1
 C        1.9590500      -0.9538000      -0.3307900
 C        1.6948800      -1.0031200      -1.7873400
 C        1.9344200      -2.3658700      -2.4036000
 O        1.4534600      -0.0225600      -2.4969800
 N        1.8170600       0.0502200       0.5339100
 C        2.5304200      -0.2181600       1.8187900
 C        1.1812800       1.2624400       0.3336900
 C        0.5091000       2.0180000       1.3840200
 C        0.4196800       1.5714600       2.8304300
 O       -0.0380700       3.0979200       1.0996900
 C        1.4341500       1.9947000      -0.9252600
 O        0.6733000       2.6974100      -1.5548200
 O        2.7630000       1.9467600      -1.1875200
 C        3.2051800       2.6455500      -2.3426000
 H        2.1876900      -1.9226300       0.0911900
 H        3.0376300      -2.5541600      -2.4152000
 H        1.5976300      -2.3775300      -3.4638000
 H        1.4760000      -3.1884700      -1.8553400
 H        1.9799500      -0.8693800       2.4715600
 H        3.4697600      -0.7295800       1.5033500
 H        2.7844000       0.7226300       2.2503500
 H        0.3372500       0.4954900       2.9892600
 H        1.3298700       1.9225500       3.3499500
 H       -0.4380800       2.0788000       3.2877700
 H        4.2753400       2.4593700      -2.3724400
 H        2.7005300       2.2573900      -3.2206100
 H        3.0003400       3.7210500      -2.2269000

