%chk=dist_85_reactant_1.chk
%mem=2GB
%nprocshared=2
#P AM1 Freq NoSymm

dipolar_001177 AM1 SPE on distorted reactant_1 @ TS geom (n=29)

0 1
 C       -3.4794900       0.7160300       2.4048200
 C       -2.0765200       1.1560500       1.9513200
 C       -2.1576400       2.5727200       1.3295000
 C       -0.8702100       3.4008300       1.2174400
 C        0.1557200       3.0532700       0.1235200
 C        1.2234300       2.0082600       0.4977600
 C        1.0056000       0.5618000      -0.0395400
 C        1.2416800       0.5289400      -1.5733600
 F        0.1722300       0.9814900      -2.2471300
 F        2.2862400       1.3001000      -1.9439100
 F        1.5087400      -0.7056900      -2.0441900
 C        2.0672700      -0.3372100       0.6467800
 F        1.9933000      -0.2198700       1.9821800
 F        1.9202700      -1.6475000       0.3756500
 F        3.3132100       0.0026700       0.2786000
 C       -0.3475600       0.0478400       0.2965400
 C       -1.3466100       0.2371800       1.0168000
 H       -3.5244100      -0.2347900       2.7992300
 H       -4.1554700       0.6684500       1.3978100
 H       -4.0031400       1.4698200       2.9836800
 H       -1.5475800       1.2747600       2.9059000
 H       -2.8408300       3.2252600       1.9736300
 H       -2.6185300       2.5739100       0.3485300
 H       -1.1209600       4.4704800       1.1113300
 H       -0.3217700       3.3821900       2.2354800
 H        0.7139300       4.0086000      -0.0933800
 H       -0.3565100       2.8025600      -0.7766400
 H        2.2425700       2.3750900       0.1144200
 H        1.3531400       1.9683500       1.5791000

