%chk=dist_191_reactant_1.chk
%mem=2GB
%nprocshared=2
#P AM1 Freq NoSymm

dipolar_002762 AM1 SPE on distorted reactant_1 @ TS geom (n=35)

0 1
 C       -2.0761100       3.7640900       1.9791500
 N       -1.2995700       3.3019900       0.8471300
 C       -0.3883300       2.3103000       0.9369300
 O       -0.0515800       1.8180100       2.0160500
 C        0.1378900       1.7638500      -0.3730800
 C       -0.0555300       2.6642600      -1.4814000
 N       -0.2747300       3.3586900      -2.3933600
 N        1.3800400       1.1038500      -0.4071800
 C        2.4739500       1.6889500      -1.1961500
 C        1.3972800      -0.2335200       0.1553400
 C        1.4957300      -0.1461000       1.7042600
 O        0.9424400      -0.8866400       2.4989200
 O        2.4223800       0.7426300       2.0946500
 C        2.5983500       0.8833800       3.5215200
 C        2.5949600      -1.0769500      -0.2915400
 C        2.8954900      -1.2478800      -1.6568300
 C        3.8888600      -2.1321200      -2.0817900
 C        4.6272100      -2.8688800      -1.1534500
 C        4.3783200      -2.6820400       0.2078700
 C        3.3879200      -1.7926900       0.6305800
 H       -3.1425400       3.5220000       1.8386800
 H       -1.7218000       3.2521700       2.8845100
 H       -1.9716600       4.8444100       2.1148900
 H       -1.5680000       3.6300100      -0.0701200
 H        2.5824000       2.7560700      -1.0382200
 H        3.4373600       1.2027100      -1.0084100
 H        2.2955600       1.5633200      -2.3337800
 H        2.9248400      -0.0685500       3.9955700
 H        3.3659100       1.6543900       3.7164400
 H        1.6525900       1.1971500       4.0277300
 H        2.3486100      -0.6897300      -2.4077300
 H        4.0582000      -2.2604500      -3.1499600
 H        5.3798100      -3.5836700      -1.4886800
 H        4.9492100      -3.2481800       0.9532800
 H        3.2441400      -1.6837200       1.7110700

