%chk=dist_201_reactant_1.chk
%mem=2GB
%nprocshared=2
#P AM1 Freq NoSymm

dipolar_002819 AM1 SPE on distorted reactant_1 @ TS geom (n=22)

0 1
 C       -3.6566700       3.5609700       2.7055700
 O       -2.4132900       3.0146000       2.2500700
 C       -1.9396700       1.9485400       2.9096800
 O       -2.4442300       1.4872500       3.9351500
 C       -0.8474300       1.3200400       2.2105400
 N        0.3531800       1.4883200       2.0546500
 C        1.5554800       1.5865500       1.6159600
 C        1.8495500       2.2691000       0.3552200
 C        3.1731200       2.2747000      -0.1246900
 C        3.4758900       2.8555400      -1.3566800
 C        2.4659300       3.4437900      -2.1265600
 C        1.1482500       3.4492000      -1.6519900
 C        0.8382800       2.8697900      -0.4221900
 H       -3.5054700       3.8226000       3.7715100
 H       -4.4510600       2.8286300       2.6075600
 H       -3.8155100       4.4363900       2.1070000
 H        2.3459700       1.0309200       2.1298500
 H        3.9595700       1.7675100       0.4437800
 H        4.5121000       2.8459200      -1.7263100
 H        2.7142000       3.9262900      -3.0785900
 H        0.3664400       3.9423900      -2.2314500
 H       -0.1861200       2.8769100      -0.0674400

