%chk=dist_76_reactant_2.chk
%mem=2GB
%nprocshared=2
#P AM1 Freq NoSymm

dipolar_000991 AM1 SPE on distorted reactant_2 @ TS geom (n=8)

0 1
 C       -0.7541100       1.5377700       0.0507200
 O       -2.0093100       1.9608300      -0.2148500
 C       -2.2974500       3.0564200      -1.0995300
 C        0.5352500       1.7313300       0.0149100
 Cl       1.7152300       2.9459200      -0.4640700
 H       -3.4497300       3.1038900      -1.1420400
 H       -1.9442500       2.8528600      -2.1024900
 H       -1.9410800       3.9879900      -0.7003100

