%chk=dist_103_reactant_2.chk
%mem=2GB
%nprocshared=2
#P AM1 Freq NoSymm

dipolar_001374 AM1 SPE on distorted reactant_2 @ TS geom (n=18)

0 1
 C        0.5650800      -1.5449700      -0.7400000
 F        1.6359000      -1.8279000      -1.5958100
 F        0.3051800      -2.7834500      -0.1690700
 C        0.9492300      -0.5152000       0.2998800
 C        2.0476700       0.4370300      -0.0651000
 O        2.9365300       0.8351200       0.6593200
 O        1.9113600       0.8263000      -1.3358600
 C        2.8460000       1.7684000      -1.8677600
 C        0.6213800      -0.7242800       1.7286600
 O        0.0113100      -1.6785400       2.1831600
 O        0.9716000       0.3299700       2.4828700
 C        0.6027200       0.2997100       3.8650900
 H        3.8532600       1.3422400      -1.8913400
 H        2.4884200       1.9789000      -2.8834000
 H        2.8409100       2.6882600      -1.2639700
 H        1.0034400      -0.5930000       4.3518600
 H        1.0389200       1.2066700       4.2999100
 H       -0.4931700       0.3268600       3.9706900

