%chk=dist_131_reactant_2.chk
%mem=2GB
%nprocshared=2
#P AM1 Freq NoSymm

dipolar_001703 AM1 SPE on distorted reactant_2 @ TS geom (n=19)

0 1
 C       -0.1287800       1.6008800       0.2725200
 C       -0.8775200       1.9263000      -0.9487000
 O       -0.4128100       1.9563600      -2.0792500
 O       -2.1419400       2.2771500      -0.6638500
 C       -2.9501900       2.7264500      -1.7542400
 C       -0.6450000       1.7749000       1.7232300
 C       -0.0571300       3.1256300       2.2065400
 C        1.2559100       2.9088000       2.3175700
 C        1.4500400       1.4215300       1.9094900
 O        0.2266100       0.8594500       2.4057100
 C        1.1775100       1.3930800       0.3931500
 H       -3.0659900       1.9485200      -2.4932200
 H       -3.9036500       3.0204900      -1.3137500
 H       -2.4629700       3.6173300      -2.2150700
 H       -1.7167400       1.5390900       1.9430600
 H       -0.6347900       4.0124400       2.2236300
 H        2.0573600       3.5725300       2.4443800
 H        2.3247400       0.8725500       2.3009900
 H        1.9166700       1.2816100      -0.3829400

