%chk=dist_35_reactant_1.chk
%mem=2GB
%nprocshared=2
#P AM1 Freq NoSymm

dipolar_000401 AM1 SPE on distorted reactant_1 @ TS geom (n=13)

0 1
 C        4.1766100      -0.5393300       1.2674900
 O        3.1148900       0.1444700       0.5839100
 C        2.4206500      -0.5696500      -0.2954100
 O        2.5795400      -1.7504900      -0.5389800
 C        1.4193000       0.2318100      -1.0027800
 O        1.0477000       1.4374800      -0.5783700
 N        0.0475500       1.9266500      -1.2564700
 O       -0.3025500       1.0086700      -2.1048700
 C        0.5351700      -0.1651900      -2.0309100
 O        0.3880400      -1.1025500      -2.7774400
 H        4.6440600       0.2182400       1.9021400
 H        4.9062500      -0.9198000       0.5284000
 H        3.7832400      -1.3656300       1.8598400

