%chk=dist_92_reactant_2.chk
%mem=2GB
%nprocshared=2
#P AM1 Freq NoSymm

dipolar_001243 AM1 SPE on distorted reactant_2 @ TS geom (n=20)

0 1
 C        1.1741900       1.5098600      -0.7105200
 C        0.8069000       2.8498000      -1.2195200
 C        1.6439700       1.2377500       0.6232600
 O        1.9316800       1.9772500       1.5555200
 O        1.8758700      -0.1282600       0.6590200
 C        1.6390200      -0.6572700      -0.5795900
 C        2.0278100      -1.9923900      -0.8956000
 C        2.8128300      -2.7219500       0.1686700
 O        1.7961800      -2.5019600      -2.0096700
 N        1.3414800       0.3801000      -1.4112300
 C        1.5173900       0.3410400      -2.8680400
 H        1.6866200       3.2393200      -1.6572000
 H       -0.0313800       2.8397500      -1.9407400
 H        0.4935400       3.4819800      -0.3582800
 H        3.8261800      -2.2624400       0.1595000
 H        2.4131000      -2.5743700       1.1769300
 H        2.8955600      -3.7748800      -0.0839700
 H        1.5694700       1.3773000      -3.2007800
 H        0.7442000      -0.1929500      -3.3969400
 H        2.4910600      -0.1447300      -3.0441200

