%chk=dist_127_reactant_2.chk
%mem=2GB
%nprocshared=2
#P AM1 Freq NoSymm

dipolar_001652 AM1 SPE on distorted reactant_2 @ TS geom (n=21)

0 1
 C        0.0988000      -1.3702100      -0.0431900
 C       -1.2994800      -1.7332400       0.2947600
 F       -2.0630500      -2.0643900      -0.7684200
 F       -1.2836600      -2.8472200       1.0964500
 F       -1.9698700      -0.8102700       1.0062000
 C        0.9467300      -2.2324500      -0.9781000
 C        1.3692000      -3.4422800      -0.0849300
 C        2.2419300      -2.7733300       1.0161900
 C        2.3314100      -1.2853300       0.5369800
 C        2.2857400      -1.4672800      -0.9909200
 C        0.9044600      -0.8402500       0.8532700
 C        0.5648900      -0.3391500       2.1421500
 N        0.3118800      -0.0415400       3.2428700
 H        0.5105300      -2.4871000      -1.9512300
 H        0.4942300      -3.9715200       0.3128800
 H        1.9552900      -4.1069400      -0.6826100
 H        3.2105500      -3.1900100       1.0950100
 H        1.7476200      -2.7919200       2.0192700
 H        3.1636900      -0.6967000       0.9553600
 H        3.1072100      -2.1083600      -1.3427400
 H        2.3224100      -0.5420900      -1.5862600

