%chk=dist_13_reactant_1.chk
%mem=2GB
%nprocshared=2
#P AM1 Freq NoSymm

dipolar_000133 AM1 SPE on distorted reactant_1 @ TS geom (n=10)

0 1
 C        3.9561300      -0.7233200       1.9031000
 O        3.0140200       0.0926100       1.1880700
 C        3.1044100       0.0638500      -0.1370200
 O        3.8729600      -0.6114000      -0.7952000
 N        2.1869900       0.9697400      -0.6335800
 N        1.7332900       0.9339700      -1.7716900
 N        1.0995100       1.1027800      -2.7257700
 H        3.8261200      -1.7772200       1.6236300
 H        4.9766800      -0.3961300       1.6616100
 H        3.7495100      -0.5807600       2.9679200

