%chk=dist_79_reactant_2.chk
%mem=2GB
%nprocshared=2
#P AM1 Freq NoSymm

dipolar_001108 AM1 SPE on distorted reactant_2 @ TS geom (n=18)

0 1
 C       -1.3385000      -0.2201800       0.5855200
 C       -2.2937500      -1.1267700       0.0262000
 N       -3.0737600      -1.8769500      -0.4002200
 C       -1.7054800       0.7281800       1.7169900
 C       -2.5319200       1.8806700       1.0523800
 C       -1.4622300       2.6545700       0.2353500
 C       -0.1555100       1.8308700       0.4752800
 C       -0.3570800       1.4414400       1.9536700
 C       -0.3005100       0.4493500      -0.2194300
 Br      -0.5554000       0.5576900      -2.1183500
 H       -2.1837500       0.2382700       2.5606600
 H       -2.9616200       2.5198300       1.9206600
 H       -3.3959300       1.5523400       0.4936300
 H       -1.7777500       2.8198300      -0.7888200
 H       -1.3332600       3.7109800       0.6822500
 H        0.7286800       2.3864000       0.1715100
 H        0.4309000       0.8014900       2.3202100
 H       -0.4624700       2.3168000       2.5954500

