%chk=dist_96_reactant_2.chk
%mem=2GB
%nprocshared=2
#P AM1 Freq NoSymm

dipolar_001294 AM1 SPE on distorted reactant_2 @ TS geom (n=15)

0 1
 C        4.3752700      -1.2927000      -0.0807400
 O        3.6627100      -0.1568500      -0.5485300
 C        2.5180300      -0.4035200      -1.2598200
 O        2.1236400      -1.5593800      -1.4721400
 C        1.9152500       0.8026300      -1.6963900
 N        0.6785800       0.7046500      -2.2055800
 C       -0.4195400       0.5622100      -2.6410100
 C       -1.6634900       0.3598200      -3.3379100
 H        4.7366800      -1.8979900      -0.9274000
 H        3.7617600      -1.9215900       0.5752400
 H        5.2337900      -0.8945800       0.4789700
 H        2.2680900       1.7857600      -1.4389000
 H       -1.4326700       0.5865800      -4.3379900
 H       -1.9483500      -0.6865900      -3.1753400
 H       -2.4736200       0.9893100      -2.9151300

