%chk=dist_25_reactant_2.chk
%mem=2GB
%nprocshared=2
#P AM1 Freq NoSymm

dipolar_000271 AM1 SPE on distorted reactant_2 @ TS geom (n=17)

0 1
 C        0.4992300      -1.0803300       0.8065900
 C        1.3971200      -1.3828800      -0.4328300
 O        0.6712700      -0.6361500      -1.4271200
 C        0.8139000       0.6517100      -0.7917500
 C        2.3458900       0.7247500      -0.6251800
 C        3.1440000       1.9718300      -0.6971300
 C        2.7141400      -0.5622900      -0.4056200
 C        4.0205200      -1.0679700      -0.2003700
 N        5.0906800      -1.4988700      -0.0296400
 C        0.1386300       0.3461400       0.5710200
 H        0.9384000      -1.3774900       1.8351300
 H        1.4874500      -2.4365000      -0.6674200
 H        0.3651300       1.4579300      -1.3578500
 H        2.8061600       2.6628500       0.0874600
 H        4.2295300       1.7982500      -0.5761600
 H        2.9835600       2.5000300      -1.6630100
 H        0.1811700       1.1319500       1.3890000

