%chk=dist_98_reactant_2.chk
%mem=2GB
%nprocshared=2
#P AM1 Freq NoSymm

dipolar_001298 AM1 SPE on distorted reactant_2 @ TS geom (n=22)

0 1
 C       -1.4634400      -1.6124200      -0.1083200
 C       -1.1827700      -2.9713600      -0.6094600
 C       -2.2889700      -3.5742200      -1.4262100
 O       -0.1506100      -3.5727700      -0.3249500
 O       -2.5481300      -0.9579100      -0.5795900
 C       -2.5991400       0.3223100       0.0068200
 O       -3.5276300       1.0731700      -0.2320200
 C       -1.4471600       0.3763200       0.8494000
 C       -1.0283600       1.4790800       1.6928700
 C       -1.6292200       2.8300100       1.3987300
 O       -0.2162500       1.3181700       2.6086100
 N       -0.8437800      -0.8626600       0.7889400
 C        0.1295800      -1.3810600       1.7610900
 H       -2.4629800      -3.0057700      -2.3503300
 H       -3.2209000      -3.5130000      -0.8331900
 H       -2.0443800      -4.6123500      -1.6493000
 H       -1.4868100       3.1184700       0.3447900
 H       -2.7161800       2.7995100       1.5787400
 H       -1.1663900       3.5788800       2.0584300
 H        0.3939100      -2.3982700       1.4697400
 H       -0.3752800      -1.3882900       2.7365500
 H        1.0092800      -0.7486500       1.8227700

