%chk=dist_183_reactant_1.chk
%mem=2GB
%nprocshared=2
#P AM1 Freq NoSymm

dipolar_002635 AM1 SPE on distorted reactant_1 @ TS geom (n=27)

0 1
 C       -3.9441200       2.3852800       1.1202100
 N       -3.3528300       1.2532500       0.4411500
 C       -2.5030400       0.4205400       1.0595200
 O       -2.2418100       0.5436100       2.2651300
 C       -1.8357700      -0.6725600       0.2152600
 C       -2.5024900      -1.0528400      -1.0631100
 O       -3.2438500      -0.3191700      -1.7047400
 O       -2.0933400      -2.2224200      -1.5403600
 C       -2.4715500      -2.5436500      -2.8840800
 N       -1.1066600      -1.6063200       0.9078700
 C       -1.3952700      -3.0326400       0.9701800
 C        0.2010700      -0.9855700       1.3320300
 C        0.9130900      -2.0205400       2.2551400
 H       -4.7952900       2.0944400       1.7609500
 H       -4.3012800       3.1029400       0.3715600
 H       -3.1975600       2.8804300       1.7582200
 H       -3.5484400       1.0729600      -0.5413200
 H       -2.0290300      -3.5212900      -3.0937300
 H       -2.0717500      -1.7876500      -3.5763700
 H       -3.5633600      -2.5863000      -2.9776600
 H       -2.4355900      -3.2224400       0.6470600
 H       -1.3100900      -3.4196300       1.9976400
 H       -0.7381600      -3.6510400       0.3224800
 H       -0.1655600      -0.1600800       2.0294500
 H        1.8335900      -1.5838400       2.5895700
 H        1.1286000      -2.9624100       1.7302900
 H        0.3418000      -2.3292900       3.2037000

