%chk=dist_156_reactant_2.chk
%mem=2GB
%nprocshared=2
#P AM1 Freq NoSymm

dipolar_002138 AM1 SPE on distorted reactant_2 @ TS geom (n=15)

0 1
 C       -4.3050600       3.2668100       1.6652200
 N       -2.9734400       2.7412900       1.7618100
 C       -2.5771200       1.7175600       0.9948900
 O       -3.2547400       1.1817400       0.1225900
 N       -1.3744400       1.1585400       1.4579300
 N       -0.2520900       1.6901900       1.5633400
 C        0.1411000       3.0456300       1.0960200
 O        0.6560300       1.0194900       2.0382700
 H       -5.0359700       2.5377800       2.0336600
 H       -4.5220000       3.5047000       0.6247900
 H       -4.3210500       4.1596600       2.2744000
 H       -2.3540200       2.9687500       2.5347600
 H        0.8383900       3.4673900       1.8055400
 H       -0.7158600       3.6538200       0.9186400
 H        0.6702500       2.8482200       0.1172000

