%chk=dist_10_reactant_1.chk
%mem=2GB
%nprocshared=2
#P AM1 Freq NoSymm

dipolar_000080 AM1 SPE on distorted reactant_1 @ TS geom (n=9)

0 1
 C        3.7043900      -0.4735100       0.1293700
 C        2.4103900       0.2154600       0.4748900
 O        2.3251200       1.2037900       1.1821200
 C        1.3127500      -0.4774200      -0.1957500
 C        0.7873100      -1.2473800      -0.9538400
 Cl       0.1096600      -2.3467600      -2.0353200
 H        3.7428000      -0.5366500      -0.9964000
 H        3.6089600      -1.5371700       0.4604300
 H        4.5083100       0.0257900       0.5406700

