%chk=dist_60_reactant_1.chk
%mem=2GB
%nprocshared=2
#P AM1 Freq NoSymm

dipolar_000732 AM1 SPE on distorted reactant_1 @ TS geom (n=22)

0 1
 C       -1.7171800      -3.2447300      -1.6328500
 N       -1.4899900      -2.2994600      -0.5500300
 C       -1.5157400      -0.9709200      -0.7790000
 O       -1.9116700      -0.5173200      -1.8735200
 C       -1.0009900      -0.0382800       0.2920900
 C       -1.8406800       1.2019700       0.5647100
 O       -1.8437100       1.7149100       1.6950700
 N       -2.4844800       1.7398200      -0.4764000
 C       -3.1135600       3.0404700      -0.3946500
 N       -0.7027400      -0.6611800       1.5489800
 N        0.6075600      -1.2398200       1.3808600
 C        1.0082900      -1.7704100       2.5649400
 N        1.4586900      -2.2176700       3.5539600
 H       -2.6968200      -3.0755800      -2.1042600
 H       -1.6845800      -4.2715300      -1.2454100
 H       -0.9465600      -3.1522800      -2.4312000
 H       -1.0103000      -2.6538600       0.2757000
 H       -2.4392500       1.2036100      -1.3386700
 H       -3.8494300       3.0902100       0.4150000
 H       -3.6072300       3.2510300      -1.3483400
 H       -2.3531700       3.8262600      -0.2115900
 H       -0.7310400       0.0709300       2.3004400

