%chk=dist_68_reactant_1.chk
%mem=2GB
%nprocshared=2
#P AM1 Freq NoSymm

dipolar_000864 AM1 SPE on distorted reactant_1 @ TS geom (n=18)

0 1
 C       -4.5699500      -0.0908100       0.6447500
 C       -3.2108000      -0.7483800       0.4965100
 O       -2.9903600      -1.8308000       1.0240000
 C       -2.1278900      -0.1465700      -0.4432900
 C       -1.8374800       2.0146900       0.3893600
 C       -2.3932200       1.7779500       1.6901200
 N       -2.7772100       1.5792900       2.7755400
 C       -1.4262900       3.3622300       0.1489200
 N       -1.0335600       4.4464800      -0.0299900
 N       -2.2452400       1.2500700      -0.7038400
 C       -2.0381300       1.7816900      -2.0543900
 H       -4.6460300       0.9802300       0.4361200
 H       -5.3120000      -0.6175800       0.0262200
 H       -4.9361200      -0.2419100       1.7290500
 H       -2.3286800      -0.6726700      -1.4489700
 H       -2.1651700       0.9759200      -2.7871100
 H       -0.9875300       2.1621100      -2.1558200
 H       -2.7311200       2.5890900      -2.2641900

