%chk=dist_186_reactant_1.chk
%mem=2GB
%nprocshared=2
#P AM1 Freq NoSymm

dipolar_002653 AM1 SPE on distorted reactant_1 @ TS geom (n=24)

0 1
 C       -0.9293000       1.2583100       1.0173200
 C       -2.0756500       1.7801800       0.2423500
 O       -3.2332700       1.7400600       0.7109200
 N       -1.8139400       2.3833100      -0.9376600
 C       -2.8795400       2.9435800      -1.7366000
 C       -1.1247500       0.6630200       2.4066700
 C       -0.9494500       1.9185200       3.3188500
 C        0.5581500       2.2694500       3.1418500
 C        1.0619900       1.1515500       2.1636500
 C        0.2207500      -0.0437100       2.6481200
 C        0.3469700       1.5537000       0.9019100
 H       -0.8896900       2.2398700      -1.3657000
 H       -3.6026400       2.1855900      -2.0469400
 H       -3.4248400       3.7202500      -1.1643300
 H       -2.4435500       3.4193800      -2.6231700
 H       -2.0349600       0.0616500       2.5722600
 H       -1.6266300       2.7147400       2.9341700
 H       -1.1799900       1.6812200       4.3095800
 H        1.0971900       2.2271500       4.0298300
 H        0.7164400       3.2535300       2.6297300
 H        2.1546800       1.0037600       2.1068400
 H        0.3703400      -0.9953900       2.0853300
 H        0.3922100      -0.2706100       3.7080000
 H        0.8035800       2.1500100       0.0932900

