%chk=dist_75_reactant_2.chk
%mem=2GB
%nprocshared=2
#P AM1 Freq NoSymm

dipolar_000984 AM1 SPE on distorted reactant_2 @ TS geom (n=23)

0 1
 C       -1.0033400      -0.2887000      -0.8945500
 C       -1.3407600       1.1405700      -0.9553600
 O       -0.5894500       2.0287400      -1.3388200
 O       -2.6037800       1.3788500      -0.5655200
 C       -3.0722100       2.7289300      -0.6751500
 C       -1.9533000      -1.4385200      -0.5715200
 C       -2.4266000      -1.9232800      -1.9826100
 C       -1.1275600      -2.5197900      -2.5996200
 C       -0.0675400      -2.3201500      -1.4531300
 C       -0.9560800      -2.5601400      -0.2126000
 C        0.1012200      -0.8239600      -1.4338900
 H       -4.1192600       2.7151700      -0.3499300
 H       -3.0220000       3.0453300      -1.7395900
 H       -2.4807000       3.4056400      -0.0651800
 H       -2.7568500      -1.2360400       0.1722600
 H       -2.7821700      -1.0241000      -2.5359900
 H       -3.1675500      -2.6360000      -1.8895500
 H       -1.1829700      -3.5229600      -2.8146400
 H       -0.7432700      -1.9316900      -3.4750200
 H        0.8672100      -2.9138900      -1.5030500
 H       -0.4443600      -2.4586900       0.7827000
 H       -1.4278900      -3.5638800      -0.2203500
 H        0.9220800      -0.2580900      -1.8606700

