%chk=dist_2_reactant_1.chk
%mem=2GB
%nprocshared=2
#P AM1 Freq NoSymm

dipolar_000027 AM1 SPE on distorted reactant_1 @ TS geom (n=12)

0 1
 C        4.0318700       0.2885600       0.5853200
 O        3.0238200       0.4009600      -0.4230200
 C        2.1494900      -0.6276300      -0.5131800
 O        2.1778200      -1.5907000       0.2439500
 C        1.2137200      -0.4287500      -1.6042300
 N        0.2128200      -1.2535800      -1.6470300
 C       -0.7144600      -2.0462100      -1.5344100
 H        4.6427400      -0.6155200       0.4304900
 H        4.6603200       1.1822200       0.4871900
 H        3.5880500       0.2522000       1.5908500
 H        1.2234700       0.4500000      -2.2224300
 H       -1.1982800      -2.8863900      -1.5732800

