%chk=dist_54_reactant_1.chk
%mem=2GB
%nprocshared=2
#P AM1 Freq NoSymm

dipolar_000606 AM1 SPE on distorted reactant_1 @ TS geom (n=19)

0 1
 C        0.6689600       2.7820600       0.6404800
 C        0.6062900       1.4507500       1.3159400
 O        0.9905600       1.2393200       2.4363000
 C        0.1077000       0.2351400       0.4211400
 C       -1.1926600      -0.0643900       0.3226700
 C       -2.6225400       0.0385800       0.3537900
 C       -3.3995900      -0.7270300       1.2702400
 C       -4.7862800      -0.7640300       1.1654300
 C       -5.4427300      -0.0637800       0.1416800
 C       -4.6973100       0.6864800      -0.7745700
 C       -3.3066300       0.7475100      -0.6758500
 H       -0.3243200       3.1738900       0.4822700
 H        1.1518400       2.6586300      -0.3494300
 H        1.2805100       3.5067700       1.2438200
 H       -2.9046400      -1.2962600       2.0448100
 H       -5.3861000      -1.3556600       1.8788000
 H       -6.5490500      -0.1031700       0.0633000
 H       -5.2274800       1.2308300      -1.5760600
 H       -2.7450200       1.3184100      -1.4009300

