%chk=dist_39_reactant_1.chk
%mem=2GB
%nprocshared=2
#P AM1 Freq NoSymm

dipolar_000418 AM1 SPE on distorted reactant_1 @ TS geom (n=25)

0 1
 C       -1.4903500       0.2512200       0.7479600
 C       -2.0458700       0.5780600       2.1478200
 C       -2.5467600      -0.4479300      -0.1734100
 C       -2.9767000      -1.8324300       0.4179300
 C       -1.6957000      -2.7014400       0.2503700
 C       -0.7053200      -1.7166500      -0.4405100
 C       -1.6769200      -0.9342200      -1.3460700
 C       -0.2984700      -0.6098300       0.5518700
 C        0.7446700      -0.8235100       1.5784700
 C        1.6449500      -2.0281800       1.4148700
 O        0.9317200      -0.0377800       2.5175400
 H       -2.8080000       1.3983200       2.0219900
 H       -1.2752600       0.9501500       2.8203000
 H       -2.5914500      -0.2283100       2.6833900
 H       -3.4153000       0.1768200      -0.3844100
 H       -3.8334600      -2.2797100      -0.2011800
 H       -3.3458400      -1.8323500       1.4439500
 H       -1.8873500      -3.5952700      -0.4473600
 H       -1.3303400      -3.1380400       1.1759800
 H        0.1405400      -2.2004900      -0.9222700
 H       -2.2116400      -1.5653800      -2.0524300
 H       -1.1891300      -0.1091600      -1.8598400
 H        2.0220500      -2.0909400       0.3780800
 H        1.0928400      -2.9519100       1.6130800
 H        2.4933300      -1.9405200       2.1048000

