%chk=dist_19_reactant_2.chk
%mem=2GB
%nprocshared=2
#P AM1 Freq NoSymm

dipolar_000205 AM1 SPE on distorted reactant_2 @ TS geom (n=8)

0 1
 C       -2.1945800       2.9313700      -0.3407400
 O       -0.8355100       3.2792700      -0.8324800
 C       -0.0621500       2.3475400      -1.0962200
 C        0.6832900       1.2750800      -0.9854400
 Cl       1.4581700       0.3787600      -2.2457200
 H       -2.7162000       3.8653500      -0.1479400
 H       -2.6822600       2.3033400      -1.0661500
 H       -2.0353600       2.3749700       0.6226700

