%chk=dist_142_reactant_1.chk
%mem=2GB
%nprocshared=2
#P AM1 Freq NoSymm

dipolar_001906 AM1 SPE on distorted reactant_1 @ TS geom (n=18)

0 1
 C       -0.7399300     -13.3677300       2.0963900
 O       -2.0930600     -12.9240600       2.2146900
 C       -2.8047500     -12.8007600       1.0658900
 O       -2.2853400     -12.9910000      -0.0350900
 C       -4.1746600     -12.4457000       1.3331500
 C       -4.6766500     -12.4963700       2.6408600
 N       -5.0968400     -12.5731000       3.7332700
 C       -4.7692400     -12.0110300      -0.9592500
 N       -5.0615400     -12.0808300       0.3045900
 C       -6.4366600     -11.7317700       0.7123400
 H       -0.1467800     -12.6817200       1.4783500
 H       -0.3451700     -13.3777400       3.1244400
 H       -0.7021900     -14.3790200       1.6718800
 H       -5.4590700     -11.5322800      -1.6326700
 H       -3.6965600     -12.1073900      -1.2478200
 H       -6.8647600     -12.5298100       1.3156200
 H       -6.3971800     -10.7970200       1.2977000
 H       -7.0293600     -11.5764000      -0.1924400

