%chk=dist_185_reactant_2.chk
%mem=2GB
%nprocshared=2
#P AM1 Freq NoSymm

dipolar_002647 AM1 SPE on distorted reactant_2 @ TS geom (n=27)

0 1
 C       -5.8671800      -1.2030400      -2.6460100
 C       -5.8981000      -1.5900300      -1.4476900
 C       -5.7362700      -1.1080300      -0.0514600
 Cl      -4.1631900      -0.1093300       0.0975300
 C       -5.3822500      -2.2200800       0.9621500
 C       -5.7099400      -1.9955600       2.4070400
 O       -4.8592200      -3.2423700       0.5635600
 C       -6.9338100      -0.2074700       0.3113500
 C       -7.5479200       0.6171200      -0.8340300
 C       -6.6263800       1.5259600      -1.6906600
 C       -6.5049600       1.1593800      -3.1772500
 C       -5.4989900      -0.0157800      -3.4855800
 C       -5.5324000      -0.3051900      -4.9424400
 N       -5.5413900      -0.4965500      -6.0832100
 C       -4.1240900       0.4752500      -3.2177800
 N       -3.0648600       0.9085100      -3.0492500
 H       -5.5228700      -0.9820800       2.7277000
 H       -5.1543200      -2.7262500       3.0214200
 H       -6.7933700      -2.2079600       2.5253700
 H       -7.7063200      -0.8999000       0.6670200
 H       -6.6555500       0.4363000       1.1531500
 H       -8.0721700      -0.0889600      -1.5138300
 H       -8.3198500       1.2226500      -0.3860600
 H       -5.6149400       1.6047500      -1.2612500
 H       -7.0311800       2.5415700      -1.6735900
 H       -6.1921200       2.0449500      -3.7746100
 H       -7.4759000       0.8377400      -3.5874400

