%chk=dist_3_reactant_1.chk
%mem=2GB
%nprocshared=2
#P AM1 Freq NoSymm

dipolar_000034 AM1 SPE on distorted reactant_1 @ TS geom (n=10)

0 1
 C        4.1839200       0.7022500       0.4355700
 O        2.8642000       0.1730800       0.6295200
 C        2.2164200      -0.2058300      -0.4751600
 O        2.6559100      -0.0803600      -1.6033200
 C        0.9689300      -0.8653500      -0.1644200
 C       -0.0190700      -1.4946200       0.0423600
 F       -0.9341400      -2.4023800       0.2591900
 H        4.1385700       1.6006000      -0.1872200
 H        4.5618300       0.9342900       1.4310500
 H        4.8270100      -0.0512100      -0.0524200

