%chk=dist_176_reactant_2.chk
%mem=2GB
%nprocshared=2
#P AM1 Freq NoSymm

dipolar_002468 AM1 SPE on distorted reactant_2 @ TS geom (n=27)

0 1
 C        0.8280200       1.1398000      -0.0346100
 C        0.4145700       1.3710900       1.3386100
 C       -0.6143600       2.3135200       1.6354200
 C       -1.0782700       2.5049100       2.9293200
 C       -0.5315100       1.7824300       4.0030700
 C        0.4865200       0.8627900       3.7397700
 C        0.9422700       0.6443300       2.4383500
 C        0.9524900       2.3518800      -0.9822600
 C        0.8244600       1.9450100      -2.4754400
 C        2.1822400       1.2599500      -2.7891400
 C        2.8140700       1.1306500      -1.3937400
 C        2.4943800       2.5619900      -0.8611100
 C        1.9414300       0.2226800      -0.4340800
 H       -1.0723800       2.8711300       0.8144400
 H       -1.8921200       3.2171300       3.1061500
 H       -0.9015800       1.9388300       5.0179000
 H        0.9165800       0.2843500       4.5606500
 H        1.7301500      -0.0830900       2.2705300
 H        0.3434300       3.2391200      -0.7112700
 H        0.6537700       2.8194900      -3.1100700
 H       -0.0190600       1.2659900      -2.5975100
 H        2.8045100       1.8918600      -3.4352300
 H        2.0833000       0.2921300      -3.2744300
 H        3.9103800       0.9074300      -1.4160400
 H        2.8832200       3.4163200      -1.5929200
 H        2.8656900       2.8508600       0.1147500
 H        2.6003000      -0.0930300       0.4365700

