%chk=dist_81_reactant_1.chk
%mem=2GB
%nprocshared=2
#P AM1 Freq NoSymm

dipolar_001155 AM1 SPE on distorted reactant_1 @ TS geom (n=25)

0 1
 C        1.6565000      -2.4175000       3.6764400
 N        1.8383700      -1.3316200       2.7269900
 C        0.8320400      -0.9612600       1.9114100
 O       -0.3012400      -1.4366300       2.0208600
 C        1.1883900      -0.0425700       0.7523100
 C        2.5689500       0.3773500       0.6883300
 N        3.7000000       0.6543600       0.6315200
 O        0.3863800       1.0234200       0.4021000
 C       -0.9485500       0.7480800       0.0270800
 C       -1.9688000       0.7688500       1.1433100
 C       -1.6912800       0.9331900       2.5132300
 C       -2.7292600       0.8960000       3.4529500
 C       -4.0540100       0.7205500       3.0406400
 C       -4.3400100       0.6130700       1.6753400
 C       -3.3061200       0.6440800       0.7399800
 H        2.6303400      -2.7202600       4.0800100
 H        0.9967900      -2.1379000       4.5126800
 H        1.1987300      -3.2932600       3.1734600
 H        2.7341500      -0.8519200       2.7264200
 H       -1.1967300       1.5983900      -0.6860700
 H       -0.6700100       1.0846500       2.8906100
 H       -2.5156100       0.9909800       4.5329800
 H       -4.8688400       0.6737100       3.7672400
 H       -5.3629100       0.4936600       1.3259100
 H       -3.5110600       0.5926800      -0.3268600

