%chk=dist_128_reactant_1.chk
%mem=2GB
%nprocshared=2
#P AM1 Freq NoSymm

dipolar_001681 AM1 SPE on distorted reactant_1 @ TS geom (n=28)

0 1
 C        3.8027400      -3.2176800       0.0728900
 O        2.7780200      -2.2339500      -0.0103600
 C        2.5840700      -1.4359400       1.1353100
 O        2.2556900      -2.2401300       2.2659300
 C        1.0583100      -3.0014000       2.1407300
 C        3.8424300      -0.6161600       1.5405700
 C        3.6708800       0.8451200       2.0015800
 C        2.9581100       1.2222200       3.3226200
 C        1.4243400       1.1177200       3.5154600
 C        0.5610900       1.5136400       2.3058100
 F        0.9284000       2.7869100       1.8283000
 C        0.8726500       0.4720000       1.3278800
 C        1.4844100      -0.4772800       0.9001800
 H        3.6755700      -3.8364900       1.0106000
 H        4.8011000      -2.7584800       0.1227400
 H        3.7253000      -3.8647100      -0.7808100
 H        0.9180700      -3.5022000       3.0746700
 H        1.1039200      -3.6818500       1.2993300
 H        0.1359000      -2.3306100       1.9643400
 H        4.4645700      -0.5648900       0.6052100
 H        4.3500800      -1.1905500       2.2588400
 H        4.6857400       1.2334600       2.0981500
 H        3.2292500       1.4595400       1.1586000
 H        3.1789500       2.2584300       3.4916700
 H        3.3981900       0.6315600       4.1167600
 H        1.0899500       1.6461200       4.3296900
 H        1.1308900       0.0109800       3.6593000
 H       -0.5162000       1.5191400       2.5058000

