%chk=dist_99_reactant_2.chk
%mem=2GB
%nprocshared=2
#P AM1 Freq NoSymm

dipolar_001314 AM1 SPE on distorted reactant_2 @ TS geom (n=27)

0 1
 C       -1.6605600       0.0309500       0.8099000
 C       -2.8358000      -0.1309700      -0.1069400
 O       -3.7403600      -0.9465100       0.1647900
 N       -2.9344500       0.7387400      -1.1255100
 C       -4.1325900       0.8309400      -1.9263600
 C       -1.6369100      -0.8119900       2.1174600
 C       -0.3924700      -1.7230800       2.2024000
 C        0.6390800      -0.8823400       2.3307600
 C        0.0035600       0.5134000       2.3006200
 O       -1.2261600       0.2592400       3.0157300
 C       -0.5815600       0.7968500       0.8699700
 C       -0.1029600       1.9109000       0.0126800
 O       -0.7453500       2.3336800      -0.9679900
 N        1.0260700       2.5329900       0.4007600
 C        1.4964900       3.7239500      -0.2806900
 H       -2.1491900       1.4009200      -1.2447500
 H       -3.9839700       1.6106400      -2.6872400
 H       -4.3606400      -0.1154700      -2.4166900
 H       -5.0121000       1.1161400      -1.3115900
 H       -2.5920900      -1.2693400       2.3575900
 H       -0.3753300      -2.8229200       2.1821300
 H        1.7117700      -1.0702800       2.4309100
 H        0.5482800       1.3410500       2.7259400
 H        1.6565300       2.0761500       1.0498200
 H        1.6273900       3.5511200      -1.3558200
 H        2.4474400       4.0341700       0.1583100
 H        0.7691500       4.5551000      -0.1644200

