%chk=dist_7_reactant_1.chk
%mem=2GB
%nprocshared=2
#P AM1 Freq NoSymm

dipolar_000050 AM1 SPE on distorted reactant_1 @ TS geom (n=17)

0 1
 C       -1.4755100      -0.9856300       0.0233400
 F       -1.9296200      -2.2529500      -0.4018500
 C       -2.6135800       0.0205900       0.3153900
 C       -3.4168600       0.3614200      -0.9770300
 C       -2.3874000       1.1559400      -1.8327500
 C       -1.1019700       1.1469100      -0.9406800
 C       -1.7491400       1.2895000       0.4559100
 C       -0.5626900      -0.2839500      -0.8575300
 H       -3.2395200      -0.2825100       1.1560700
 H       -4.3095500       1.0282400      -0.7073500
 H       -3.8368500      -0.4927900      -1.4955900
 H       -2.7320400       2.2365600      -1.9849100
 H       -2.2490000       0.7503400      -2.8309900
 H       -0.3628700       1.8927500      -1.2285200
 H       -1.0143600       1.1968100       1.2627400
 H       -2.3372400       2.1928100       0.5715700
 H       -0.1427700      -0.7703900      -1.7913500

