%chk=dist_165_reactant_1.chk
%mem=2GB
%nprocshared=2
#P AM1 Freq NoSymm

dipolar_002319 AM1 SPE on distorted reactant_1 @ TS geom (n=36)

0 1
 C       -0.6491800       0.1752600       0.5158900
 C       -1.7571200      -0.5081300       1.2403100
 C       -2.7806200      -1.2672000       0.6581700
 C       -3.8314800      -1.7484700       1.4415300
 C       -3.8820300      -1.4694300       2.8109300
 C       -2.8766500      -0.6956500       3.3981300
 C       -1.8326300      -0.2136000       2.6160700
 C       -0.9910400       0.9804400      -0.6897900
 C       -2.3239200       1.3624200      -0.9466400
 C       -2.6403700       2.2060000      -2.0091800
 C       -1.6330600       2.6917400      -2.8499200
 C       -0.3087800       2.3101200      -2.6247200
 C        0.0081300       1.4556800      -1.5662900
 C        0.5388300       0.2697600       1.1333100
 C        1.4265500       1.4831700       0.9609300
 C        0.7119400       2.7252200       1.4240800
 O        2.6222000       1.4949200       0.7042000
 C        1.0238400      -0.7536300       2.1176900
 C        1.8881800      -0.2447800       3.2442800
 O        0.7112500      -1.9424200       2.0614000
 H       -2.7578400      -1.4915700      -0.4060300
 H       -4.6144300      -2.3442700       0.9785300
 H       -4.7011200      -1.8385800       3.4211200
 H       -2.9031700      -0.4461900       4.4575100
 H       -1.0547000       0.4229600       3.0659400
 H       -3.1172500       1.0203000      -0.2852800
 H       -3.6798300       2.5002300      -2.1642900
 H       -1.8864500       3.3634300      -3.6743900
 H        0.4842900       2.6765300      -3.2830200
 H        1.0507400       1.1577900      -1.4589400
 H        1.2295800       3.5974300       1.1301400
 H        0.6937400       2.6290800       2.5334400
 H       -0.3456900       2.7073800       1.1021300
 H        2.8790000       0.0181800       2.8721000
 H        1.9618500      -1.0018100       4.0264100
 H        1.4275100       0.6780900       3.6481600

