%chk=dist_74_reactant_1.chk
%mem=2GB
%nprocshared=2
#P AM1 Freq NoSymm

dipolar_000983 AM1 SPE on distorted reactant_1 @ TS geom (n=20)

0 1
 C       -1.8057800      -0.2057500       0.5584200
 Cl      -2.9013500      -1.5893300       0.8923000
 C       -2.5329600       1.0883100       0.1620300
 C       -3.2139600       0.8546100      -1.2278300
 C       -2.0060400       0.7787200      -2.2101500
 C       -0.7792700       0.9094300      -1.2518800
 C       -1.3316600       1.9533100      -0.2617300
 C       -0.7394900      -0.3365900      -0.3638600
 C       -0.2508600      -1.6173600      -0.9210300
 F       -1.0850900      -2.1728800      -1.8499900
 F       -0.0749200      -2.5864600       0.0143700
 F        0.9401200      -1.4822100      -1.5647700
 H       -3.2473900       1.4569500       0.8965400
 H       -3.8715100       0.0087300      -1.3281800
 H       -3.8638400       1.7764300      -1.5211700
 H       -1.9883000      -0.1051400      -2.8419100
 H       -1.9826400       1.6695500      -2.9452700
 H        0.1664900       1.1455300      -1.7335800
 H       -1.6218900       2.8853200      -0.7230500
 H       -0.6783200       2.1156400       0.5883800

