%chk=dist_153_reactant_1.chk
%mem=2GB
%nprocshared=2
#P AM1 Freq NoSymm

dipolar_002058 AM1 SPE on distorted reactant_1 @ TS geom (n=27)

0 1
 C      -10.1838900      -3.2942800      -3.8745000
 N       -9.2735100      -3.8532300      -2.8934400
 C       -8.1252200      -3.2661100      -2.5445500
 O       -7.6931000      -2.2214700      -3.0370000
 C       -7.2415700      -4.0227900      -1.5229300
 Cl      -8.2673900      -5.0032400      -0.3452900
 C       -6.2568600      -5.0071000      -2.2190300
 C       -5.2913000      -4.4138400      -3.2657900
 C       -4.3309000      -3.2424000      -2.9503500
 C       -3.4557100      -3.3129000      -1.6745700
 C       -3.9326200      -2.3520600      -0.5858700
 F       -3.2243500      -2.5469100       0.5770000
 F       -3.6700300      -1.0543300      -0.9555900
 C       -5.3710700      -2.5782500      -0.4102200
 C       -6.3765200      -3.1274200      -0.7802600
 H      -10.9974000      -2.7348400      -3.4029400
 H      -10.6338600      -4.1261500      -4.4645400
 H       -9.6347200      -2.6444000      -4.5540100
 H       -9.5749000      -4.6643100      -2.3527800
 H       -6.8390300      -5.7721800      -2.6338400
 H       -5.6682100      -5.4131100      -1.3556400
 H       -5.8974800      -4.1082100      -4.1308000
 H       -4.6966700      -5.2595900      -3.5653800
 H       -3.6621400      -3.1553500      -3.7933800
 H       -4.9131300      -2.2813600      -2.9389000
 H       -3.5361100      -4.3186100      -1.2052400
 H       -2.4496200      -3.0658600      -1.8376600

