%chk=dist_3_reactant_2.chk
%mem=2GB
%nprocshared=2
#P AM1 Freq NoSymm

dipolar_000034 AM1 SPE on distorted reactant_2 @ TS geom (n=11)

0 1
 C       -2.0455400       0.2271100       0.1974800
 C       -2.3713600      -0.0985500       1.5218900
 N       -2.6900300      -0.3756800       2.6161600
 C       -2.7426500      -0.3018700      -0.8981600
 N       -3.3632800      -0.7467500      -1.7885800
 N       -1.0535100       1.1560400      -0.0315100
 C       -0.1839700       1.9228200      -0.2198000
 C        0.9438900       2.7793000      -0.4524900
 H        0.5324200       3.7580600      -0.5185800
 H        1.6527000       2.6617800       0.3860600
 H        1.4554400       2.4612600      -1.3808100

