%chk=dist_180_reactant_2.chk
%mem=2GB
%nprocshared=2
#P AM1 Freq NoSymm

dipolar_002549 AM1 SPE on distorted reactant_2 @ TS geom (n=17)

0 1
 C        0.2596800      -1.3867700      -0.4539900
 F        0.7315700      -1.9391700      -1.6291500
 C        0.6669600      -2.2624000       0.7535400
 C        0.0836300      -3.6967600       0.5737100
 C       -1.4410400      -3.4876000       0.7943700
 C       -1.5593400      -1.9443900       1.0068700
 C       -0.2717400      -1.6917900       1.8255000
 C       -1.2029500      -1.2382800      -0.3078800
 Cl      -2.2222400      -1.6731700      -1.6780000
 H        1.7478700      -2.2747000       0.9520000
 H        0.3198700      -4.1977900      -0.3529200
 H        0.5072900      -4.3979000       1.4035500
 H       -2.0547900      -3.8933200      -0.0066300
 H       -1.8050600      -4.0175400       1.7490400
 H       -2.5023800      -1.6339100       1.4334700
 H       -0.0965100      -0.6501500       2.0149900
 H       -0.2518800      -2.2650900       2.7593100

