%chk=dist_182_reactant_1.chk
%mem=2GB
%nprocshared=2
#P AM1 Freq NoSymm

dipolar_002631 AM1 SPE on distorted reactant_1 @ TS geom (n=18)

0 1
 C       -2.4251500      -4.1175700       3.1761200
 N       -1.6475000      -3.4031600       4.1617800
 C       -2.2175200      -2.5820000       5.0605700
 O       -3.4397900      -2.4289500       5.1663600
 C       -1.2730700      -1.8877300       5.9671300
 C       -1.5145800      -1.4827600       7.3525900
 O       -0.7352800      -0.8145400       8.0153900
 O       -2.6468600      -2.0111200       7.8182000
 C       -2.9620100      -1.7489800       9.1863800
 N       -0.1044100      -1.4744100       5.5426600
 N        0.8944400      -0.9587100       5.2736200
 H       -1.7934700      -4.9120100       2.7665100
 H       -3.3042100      -4.5704800       3.6569600
 H       -2.7549400      -3.4543800       2.3764300
 H       -0.6335200      -3.4581900       4.1462800
 H       -2.1633200      -2.1468200       9.8324200
 H       -3.8997800      -2.2815900       9.3717200
 H       -3.0819500      -0.6774400       9.3502300

