%chk=dist_201_reactant_2.chk
%mem=2GB
%nprocshared=2
#P AM1 Freq NoSymm

dipolar_002819 AM1 SPE on distorted reactant_2 @ TS geom (n=26)

0 1
 C        0.2273500      -0.7887000      -0.0819400
 C       -0.8731200      -0.3060900       0.0365700
 C       -2.2102700       0.1278200      -0.3740500
 F       -2.3329800       1.5162100      -0.3035600
 C       -3.2690600      -0.5334200       0.5235500
 O       -3.3909400      -1.7352600       0.5855500
 O       -3.9807100       0.3433500       1.2101400
 C       -4.9156800      -0.1946200       2.1674000
 C       -2.3262300      -0.3067200      -1.8516700
 C       -1.1753000       0.2180300      -2.7462200
 C        0.0147100      -0.7179500      -3.0831600
 C        1.3119700      -0.7142100      -2.2472200
 C        1.2607900      -1.4004500      -0.8747600
 Br       3.0347100      -1.3611000      -0.0315300
 Br       0.7602400      -3.3894100      -1.0861700
 H       -5.4093400       0.6621400       2.6322000
 H       -5.6585200      -0.8371400       1.6620900
 H       -4.3857500      -0.7889500       2.9323300
 H       -2.2784800      -1.4498300      -1.8093400
 H       -3.2746400      -0.0338300      -2.1820500
 H       -1.6586200       0.4572300      -3.6822800
 H       -0.8188000       1.1818000      -2.3285200
 H        0.3770900      -0.3709200      -4.0748600
 H       -0.3166600      -1.7268100      -3.2072400
 H        1.6337600       0.3548000      -2.0354200
 H        2.1098000      -1.1770500      -2.7873800

