%chk=dist_119_reactant_1.chk
%mem=2GB
%nprocshared=2
#P AM1 Freq NoSymm

dipolar_001528 AM1 SPE on distorted reactant_1 @ TS geom (n=20)

0 1
 C       -1.2948500       1.8800700       4.5355100
 O       -0.2840000       1.9625600       3.5392900
 C       -0.7030900       2.2522600       2.2703800
 O       -1.8829100       2.5911000       2.0503100
 C        0.3183200       2.1668100       1.2893600
 C        1.7288200       1.7239700       1.4800300
 N       -0.0686500       2.6252500       0.0547000
 C        0.6070400       2.6964600      -1.0668500
 C        0.0194900       3.2870500      -2.2992300
 H       -2.0427700       1.1374200       4.3194400
 H       -1.7722200       2.8748800       4.6618200
 H       -0.7546200       1.6336100       5.4706100
 H        1.8124400       1.2002000       2.4838100
 H        2.0588800       0.9379700       0.7420500
 H        2.3906700       2.5369900       1.4447100
 H       -1.0488700       2.9142800       0.0459200
 H        1.5827000       2.1730900      -1.0852800
 H       -1.0751600       3.3453700      -2.2381800
 H        0.4769600       4.2045500      -2.4508200
 H        0.2466400       2.6240700      -3.2086500

