%chk=dist_40_reactant_2.chk
%mem=2GB
%nprocshared=2
#P AM1 Freq NoSymm

dipolar_000425 AM1 SPE on distorted reactant_2 @ TS geom (n=13)

0 1
 C        0.6879900      -0.1993600      -0.7959300
 C        1.0102700      -1.2579100       0.2836000
 O        1.2212100      -0.4239600       1.4356300
 C        2.1703600       0.4568900       0.7983800
 C        3.2200100      -0.5645700       0.2978600
 C        2.4805300      -1.6255400      -0.0270400
 Cl       2.9003500      -3.0613500      -0.8853500
 C        1.4103000       0.8190700      -0.5024400
 H        0.1027600      -0.4121600      -1.6832300
 H        0.2994500      -2.0796600       0.4935000
 H        2.5030500       1.2367300       1.5078900
 H        4.2404500      -0.3298300       0.1008700
 H        1.5347800       1.7671400      -1.0409100

