%chk=dist_92_reactant_1.chk
%mem=2GB
%nprocshared=2
#P AM1 Freq NoSymm

dipolar_001243 AM1 SPE on distorted reactant_1 @ TS geom (n=24)

0 1
 C       -0.3733000      -2.8904500       1.5914600
 O       -0.3636300      -1.4750100       1.4962600
 C       -0.8815500      -0.8753200       0.3938500
 C       -1.6986700      -1.5948100      -0.6777000
 C       -1.3287100      -1.2233700      -2.1387800
 C       -1.6865900       0.2859800      -2.2248800
 C       -2.1776200       0.5975200      -0.7930800
 C       -2.9674500      -0.7091200      -0.4874400
 C       -1.0920700       0.4383800       0.2979600
 C       -1.2532400       1.2971800       1.4859700
 F       -0.4167100       1.0295700       2.5019800
 F       -2.5188600       1.1124400       2.0033000
 F       -1.1783200       2.6321900       1.2520800
 H       -1.4043000      -3.2684200       1.6427900
 H        0.1509800      -3.3403800       0.7522600
 H        0.1436800      -3.1122000       2.5316700
 H       -1.7527800      -2.6576700      -0.5177400
 H       -1.9906200      -1.8145600      -2.8078800
 H       -0.3050800      -1.4682500      -2.4298200
 H       -0.8822000       0.9310900      -2.5908900
 H       -2.5432900       0.4554900      -2.9119800
 H       -2.7087200       1.5492400      -0.7113400
 H       -3.7370300      -0.9342600      -1.1430400
 H       -3.2701200      -0.7333300       0.5824100

