%chk=dist_179_reactant_2.chk
%mem=2GB
%nprocshared=2
#P AM1 Freq NoSymm

dipolar_002501 AM1 SPE on distorted reactant_2 @ TS geom (n=22)

0 1
 C       -1.5384600       1.5674300      -0.9995500
 C       -2.8518900       1.6913900      -0.3398100
 C       -4.0487700       1.0162000      -0.9416100
 O       -2.9397200       2.3800000       0.6742100
 C       -1.0858200       0.7742600      -2.1558400
 O        0.0771900       0.7447300      -2.5386800
 O       -2.0658600       0.0835100      -2.7233800
 C       -1.7230800      -0.7661700      -3.8242600
 N       -0.5699700       2.2409500      -0.4592100
 C        0.4502800       2.7451600      -0.0621900
 C        1.4996400       3.7046900      -0.0365800
 C        2.3799300       3.6538200      -1.2446200
 O        1.5621100       4.4823400       0.9082700
 H       -4.9139000       1.2241900      -0.3122600
 H       -3.8882800      -0.0659200      -1.0421000
 H       -4.2066400       1.4070000      -1.9585000
 H       -1.2524600      -0.1786100      -4.6228800
 H       -1.0455600      -1.5611800      -3.4940500
 H       -2.6739900      -1.1874600      -4.1632800
 H        2.6179400       2.6097700      -1.5425200
 H        3.2603500       4.2371400      -1.0645800
 H        1.7656900       4.0844000      -2.0542200

