%chk=dist_147_reactant_2.chk
%mem=2GB
%nprocshared=2
#P AM1 Freq NoSymm

dipolar_001930 AM1 SPE on distorted reactant_2 @ TS geom (n=26)

0 1
 C        0.1755900      -2.5753600      -0.5298300
 N        1.1775000      -1.7660800      -0.3713400
 C        2.2866000      -1.9687200      -1.3374500
 C        1.2788200      -0.7872000       0.6245900
 C        0.6006500      -0.9472800       1.8808900
 C        0.3131800      -2.3218800       2.4607300
 O        0.3683100       0.0292800       2.6339000
 C        2.2224900       0.3324400       0.4297600
 C        2.9748500       0.8027200       1.5292400
 C        3.9199300       1.8143100       1.3823700
 C        4.1544400       2.3898000       0.1274900
 C        3.4121300       1.9478200      -0.9693900
 C        2.4515300       0.9449600      -0.8187200
 H       -0.7225600      -2.5108000       0.1790200
 H        0.0581200      -3.2035800      -1.3720600
 H        3.1792200      -1.6303200      -0.8909500
 H        2.2963300      -3.0507600      -1.5111400
 H        2.0747400      -1.4607500      -2.2898600
 H        0.9024800      -2.3666800       3.3822300
 H        0.6108200      -3.1466300       1.8019000
 H       -0.7397400      -2.4256300       2.7374600
 H        2.8024600       0.3579900       2.5137400
 H        4.4870200       2.1326300       2.2552200
 H        4.9014200       3.1670000       0.0166700
 H        3.5692400       2.3941200      -1.9527900
 H        1.8579800       0.6532000      -1.6873700

