%chk=dist_140_reactant_1.chk
%mem=2GB
%nprocshared=2
#P AM1 Freq NoSymm

dipolar_001839 AM1 SPE on distorted reactant_1 @ TS geom (n=21)

0 1
 C        0.5888200       1.1164200      -0.2601400
 C        1.1509500       1.8340800       0.8766100
 C        2.6002900       2.2384600       0.7532000
 O        0.4865200       2.1624100       1.8659100
 C        1.4357800       0.6694800      -1.4843100
 C        1.2919500       1.8481600      -2.4779000
 C        0.0259800       1.7949800      -2.9027900
 C       -0.5818300       0.5905700      -2.1521600
 O        0.5459700      -0.2915400      -2.0739400
 C       -0.6620200       1.1518400      -0.7131500
 C       -1.8327800       1.9647700      -0.2803200
 H        3.2482000       1.3653900       0.5931000
 H        2.7220800       2.8906800      -0.1330000
 H        2.9079600       2.7816900       1.6497400
 H        2.4401000       0.2551100      -1.3324700
 H        2.0306000       2.6023900      -2.6451500
 H       -0.5594300       2.4680700      -3.4952800
 H       -1.4467300       0.0715800      -2.6152300
 H       -2.8070300       1.5523700      -0.5283200
 H       -1.7778900       2.2073400       0.7795000
 H       -1.6507300       2.8586200      -0.8713700

