%chk=dist_169_reactant_2.chk
%mem=2GB
%nprocshared=2
#P AM1 Freq NoSymm

dipolar_002374 AM1 SPE on distorted reactant_2 @ TS geom (n=19)

0 1
 N       -0.2235100       0.9558700      -1.7148900
 C       -1.2523000       1.8382900      -2.0599500
 O       -1.0406900       2.9621500      -2.5050400
 O       -2.4374600       1.2524300      -1.9681900
 C       -3.5727900       2.0501500      -2.3506600
 N        0.8144600       1.5095200      -1.2141500
 C        1.9440200       0.8554100      -0.9392700
 C        2.9082900       1.4909800      -0.1132200
 N        3.7226100       1.9751800       0.5639800
 C        2.3520500      -0.4574600      -1.5328500
 C        1.6374300      -1.0015600      -2.7337400
 O        3.3495400      -0.9918000      -1.0746200
 H       -3.4617400       2.3678700      -3.4002200
 H       -4.4696400       1.4212400      -2.2434500
 H       -3.6524400       2.9336400      -1.7019500
 H        0.7591900       2.5006300      -0.8948500
 H        0.8677000      -1.7157400      -2.4138400
 H        2.3692000      -1.5386700      -3.3434900
 H        1.1454300      -0.2089000      -3.3210600

