%chk=dist_121_reactant_1.chk
%mem=2GB
%nprocshared=2
#P AM1 Freq NoSymm

dipolar_001534 AM1 SPE on distorted reactant_1 @ TS geom (n=31)

0 1
 C       -2.4729500      -2.9555800      -0.9764100
 C       -1.5753500      -2.1692400      -0.0708300
 O       -0.8036800      -2.6901600       0.7082300
 C       -1.6575800      -0.6136700      -0.0677800
 Cl      -2.1379300      -0.0124100      -1.7375300
 C       -2.7940800      -0.2818500       0.9423100
 C       -3.3332000       1.1495300       0.9764800
 C       -2.3088200       2.2615500       1.2205600
 C       -1.3809500       2.0185800       2.4238700
 C        0.1309600       1.8492700       2.1016400
 C        0.6891100       3.1966800       1.6011100
 C        0.8385700       1.4296000       3.4031600
 C        0.3642800       0.7892700       1.0015900
 C       -0.3489700      -0.0012800       0.2848200
 H       -2.5420100      -3.9935700      -0.6046900
 H       -3.4695000      -2.5153900      -1.0834500
 H       -2.0110400      -2.9788000      -1.9803600
 H       -3.6788400      -0.9482100       0.6910900
 H       -2.4593600      -0.6080000       1.9207900
 H       -3.8755900       1.3703300       0.0423200
 H       -4.1055500       1.1691300       1.7775500
 H       -1.7203300       2.4241800       0.3312500
 H       -2.8944600       3.2069500       1.3649000
 H       -1.4704700       2.9195900       3.1422300
 H       -1.7389300       1.1849900       3.0363000
 H        0.5227100       3.9881100       2.3661300
 H        1.7660100       3.1436200       1.4246000
 H        0.1945400       3.5142900       0.6780400
 H        0.6658800       2.2130100       4.2031300
 H        0.4284600       0.4922200       3.7980400
 H        1.9109300       1.3390400       3.2835500

