%chk=dist_108_reactant_1.chk
%mem=2GB
%nprocshared=2
#P AM1 Freq NoSymm

dipolar_001415 AM1 SPE on distorted reactant_1 @ TS geom (n=20)

0 1
 C        4.4363000       1.2142400      -0.1247000
 O        3.3616800       0.7081100       0.6585700
 C        2.7763900      -0.4518600       0.2140600
 O        3.1620700      -1.0057700      -0.8379200
 C        1.7198700      -0.8656300       1.0351000
 N        0.9497000      -1.9215100       0.6088700
 C       -0.0462300      -2.5666200       1.1603900
 C       -0.4780300      -2.3221900       2.5710300
 C       -0.7011600      -3.6761700       0.4114300
 H        4.8004300       2.1158600       0.4008200
 H        4.1349600       1.4759400      -1.1421400
 H        5.2559400       0.4716900      -0.1679300
 H        1.5046000      -0.3915600       1.9770900
 H        1.2070400      -2.2274700      -0.3383800
 H       -0.3513500      -3.2857000       3.0718200
 H       -1.5442100      -2.0362400       2.6839800
 H        0.1287900      -1.5750800       3.1063600
 H       -0.4412400      -3.6571300      -0.6449400
 H       -1.8268200      -3.5726600       0.4786200
 H       -0.4258100      -4.5733800       0.8962700

