%chk=dist_86_reactant_1.chk
%mem=2GB
%nprocshared=2
#P AM1 Freq NoSymm

dipolar_001187 AM1 SPE on distorted reactant_1 @ TS geom (n=23)

0 1
 C        1.2273000      -1.2987000      -1.0003900
 Cl       2.1713700      -0.5213900      -2.2351900
 C        1.1091100      -2.8310700      -0.9934000
 C        2.2218400      -3.2355300       0.0143300
 C        1.7684000      -2.8159800       1.1984200
 C        0.3899600      -2.1679000       0.8897900
 O       -0.0560400      -3.0055000      -0.1885700
 C        0.7537900      -0.8499500       0.1422600
 C        0.9377400       0.4147500       0.8575300
 C        1.4396600       1.5665800       0.2203000
 C        1.7204400       2.7172400       0.9523500
 C        1.5024200       2.7502600       2.3339000
 C        0.9806500       1.6242100       2.9735400
 C        0.6959300       0.4688800       2.2426500
 H        1.0072000      -3.3820900      -1.9463400
 H        3.1691100      -3.6111700      -0.3022400
 H        2.2727900      -2.7577500       2.1392900
 H       -0.3509400      -2.1220800       1.7081200
 H        1.5923200       1.5663800      -0.8611500
 H        2.1132900       3.5909000       0.4337400
 H        1.7294700       3.6505700       2.9005400
 H        0.7964300       1.6364700       4.0468900
 H        0.2900600      -0.4013200       2.7644200

