%chk=dist_39_reactant_2.chk
%mem=2GB
%nprocshared=2
#P AM1 Freq NoSymm

dipolar_000418 AM1 SPE on distorted reactant_2 @ TS geom (n=19)

0 1
 C        3.6015600      -0.4188500      -3.0218000
 N        2.3578800      -0.0164400      -2.3738000
 C        2.3079300       0.3283400      -1.0806400
 O        3.2866500       0.3850000      -0.3383000
 C        0.9235400       0.6171900      -0.5194700
 N        0.3563700       1.7274400      -0.5930600
 C       -0.9052900       1.9948900       0.0588100
 C       -1.9306900       2.5393100      -0.9361600
 C       -0.6438900       3.0064800       1.1823500
 H        4.1896200      -1.0752200      -2.3499100
 H        4.2507100       0.4281800      -3.3062900
 H        3.3760300      -0.9954300      -3.9408200
 H        1.5292800       0.0461200      -2.9473400
 H       -1.9763900       1.9182900      -1.8364700
 H       -2.8860300       2.5473800      -0.4311700
 H       -1.7601500       3.6100000      -1.3023300
 H       -1.5660400       3.2354300       1.7032400
 H       -0.2438700       4.0484200       0.8424000
 H        0.1144200       2.6371400       1.8824500

