%chk=dist_45_reactant_2.chk
%mem=2GB
%nprocshared=2
#P AM1 Freq NoSymm

dipolar_000502 AM1 SPE on distorted reactant_2 @ TS geom (n=14)

0 1
 C        4.6119300       0.2878100      -0.1528600
 O        3.8108500      -0.8363800      -0.5009800
 C        3.0485200      -1.3782700       0.5050300
 O        3.0381400      -0.8792300       1.6470500
 C        2.3219300      -2.5071800       0.0761700
 N        1.3948000      -3.0113700       0.9373100
 C        0.5090400      -3.9693300       0.7775400
 H        5.3218800       0.0344400       0.6518000
 H        4.0011400       1.1426000       0.1667400
 H        5.1729900       0.5553700      -1.0619400
 H        2.2823700      -2.8344900      -0.9660400
 H        1.4145100      -2.5791600       1.8625200
 H       -0.2441500      -4.1447200       1.5058200
 H        0.3232800      -4.2893200      -0.3014400

