%chk=dist_198_reactant_1.chk
%mem=2GB
%nprocshared=2
#P AM1 Freq NoSymm

dipolar_002810 AM1 SPE on distorted reactant_1 @ TS geom (n=19)

0 1
 C       -3.0874100      -0.7741500       3.4209000
 O       -2.6422200      -0.0750700       2.2466700
 C       -1.5380400       0.6627100       2.3646200
 O       -0.9537700       0.8325900       3.4053000
 C       -1.1120100       1.1963500       0.9904100
 C       -0.2442500       2.4651900       0.9474400
 O        0.0170700       3.0261800      -0.1026700
 O        0.1799000       2.8981600       2.1146300
 C        1.1355700       3.9792800       2.0855600
 N       -2.1871400       1.2618300       0.1046100
 N       -1.7842400       1.2405600      -1.2261800
 H       -3.3546100      -0.0771700       4.2207400
 H       -2.2884700      -1.4502900       3.7746500
 H       -3.9625100      -1.3634200       3.1136700
 H        1.4489900       4.1495900       3.1190800
 H        0.6958000       4.8874200       1.6565000
 H        2.0139700       3.6829800       1.4716100
 H       -2.9519400       0.6098200       0.3403000
 H       -1.2115200       2.1160700      -1.2477200

