%chk=dist_26_reactant_2.chk
%mem=2GB
%nprocshared=2
#P AM1 Freq NoSymm

dipolar_000279 AM1 SPE on distorted reactant_2 @ TS geom (n=14)

0 1
 C        3.8639500       0.9779500       1.1637100
 N        2.9116500      -0.0366600       0.7484300
 C        2.3973300      -0.0243700      -0.4943400
 O        2.8455300       0.6803100      -1.4074100
 C        1.1885800      -0.9055700      -0.7922600
 N        0.8718600      -1.9386200       0.1152100
 N        0.3573000      -1.3516600       1.2373600
 H        3.3957700       1.9940400       1.1486200
 H        4.1939900       0.7733600       2.1848900
 H        4.7240200       1.0014000       0.4944600
 H        2.3600400      -0.5125800       1.4695200
 H        1.3614400      -1.3953400      -1.8253400
 H        0.3503400      -2.7383700      -0.3018700
 H        0.0373400      -2.2469300       1.7889300

