%chk=dist_118_reactant_1.chk
%mem=2GB
%nprocshared=2
#P AM1 Freq NoSymm

dipolar_001520 AM1 SPE on distorted reactant_1 @ TS geom (n=21)

0 1
 C       -3.1701900      -1.9997600       2.0092700
 C       -2.0643800      -0.9699900       2.0564400
 O       -1.3400500      -0.8758900       3.0479500
 C       -1.9926500      -0.0257100       0.9214900
 C       -2.9119600      -0.1267400      -0.3431100
 C       -2.0098300      -0.4526600      -1.5387600
 C       -1.2853900       0.6562000      -1.7336200
 C       -1.7956800       1.6480000      -0.6670900
 O       -3.1947300       1.2688200      -0.5837900
 C       -1.3111400       1.1311500       0.7140700
 C       -0.4866100       2.0350500       1.5585700
 F       -1.2003000       3.1768000       1.8678200
 F        0.6001200       2.4740900       0.8900200
 F       -0.0746400       1.5445800       2.7261700
 H       -4.1366000      -1.4425100       2.1834200
 H       -3.2694400      -2.4943500       1.0509200
 H       -3.0467800      -2.7098300       2.8217800
 H       -3.8283700      -0.6789700      -0.2035700
 H       -2.0487500      -1.4261000      -2.0789900
 H       -0.4866300       0.7907000      -2.4884700
 H       -1.5723200       2.6771700      -0.8760600

