%chk=dist_170_reactant_2.chk
%mem=2GB
%nprocshared=2
#P AM1 Freq NoSymm

dipolar_002390 AM1 SPE on distorted reactant_2 @ TS geom (n=20)

0 1
 C       -1.5079600      -0.2645900       0.0924700
 C       -2.0958200       0.8742400       0.8553100
 F       -1.2386800       1.6111800       1.5811400
 F       -2.9918000       0.3361700       1.7419500
 F       -2.8135200       1.7379700       0.1019500
 C       -2.2262000      -0.8562800      -1.1302500
 C       -1.2550000      -1.2126100      -2.2959900
 C       -0.3938000      -2.3541900      -1.6932400
 C       -0.9440900      -2.4774600      -0.2488900
 C       -2.4645000      -2.2672800      -0.5183700
 C       -0.7422000      -1.2002200       0.5731600
 Br       0.0236400      -1.2829200       2.3204400
 H       -3.0816000      -0.2503400      -1.4448700
 H       -1.8677800      -1.5779000      -3.1507200
 H       -0.6582000      -0.3780100      -2.6782900
 H        0.6755700      -2.1847000      -1.7499600
 H       -0.5994400      -3.3192500      -2.2016600
 H       -0.6136400      -3.3473700       0.2913900
 H       -3.0085000      -2.1420100       0.4558700
 H       -2.8969100      -2.9531100      -1.1497100

