%chk=dist_123_reactant_2.chk
%mem=2GB
%nprocshared=2
#P AM1 Freq NoSymm

dipolar_001556 AM1 SPE on distorted reactant_2 @ TS geom (n=18)

0 1
 C        0.1119000      -1.5300200      -0.7184600
 Cl       0.0589100      -1.7653300      -2.4645300
 C        1.2281700      -2.1063400       0.1249500
 C        0.7162800      -3.5737300       0.3083800
 C       -0.5481900      -3.4008300       1.1999900
 C       -0.5998100      -1.8575400       1.4369300
 C        0.8948300      -1.5104200       1.5082500
 C       -0.9545700      -1.3783800       0.0393100
 C       -2.2948900      -1.3107800      -0.4344900
 N       -3.3924100      -1.3613200      -0.8325600
 H        2.2520000      -1.9774600      -0.2411800
 H        1.4599700      -4.1372100       0.7831200
 H        0.4849200      -3.9877200      -0.6964400
 H       -0.4758300      -3.8918200       2.1160000
 H       -1.4909700      -3.7012700       0.6709600
 H       -1.2455400      -1.4947400       2.2590000
 H        1.3942200      -2.0577900       2.3161900
 H        1.1005200      -0.4292400       1.6306500

