%chk=dist_65_reactant_1.chk
%mem=2GB
%nprocshared=2
#P AM1 Freq NoSymm

dipolar_000784 AM1 SPE on distorted reactant_1 @ TS geom (n=28)

0 1
 C       -1.1372700       1.9795900       0.2610700
 C       -1.8368000       3.1724700       0.4170700
 C       -3.0073400       3.0824000       1.3671800
 O       -1.5358100       4.1774800      -0.2511600
 N       -0.3156800       1.1503100       0.5996700
 C        0.4185200       0.1584700       0.9615600
 C       -0.2472900      -0.8257000       1.8547000
 O       -0.0347400      -2.0490000       1.7489900
 N       -1.1294500      -0.3318900       2.7430300
 C       -1.9048200      -1.1977300       3.6079600
 C        1.7510900      -0.0422900       0.3737300
 C        2.1257900       0.6302500      -0.8038500
 C        3.3887600       0.4284900      -1.3603000
 C        4.2983700      -0.4428600      -0.7507900
 C        3.9328500      -1.1087800       0.4229300
 C        2.6710400      -0.9119300       0.9831900
 H       -3.8056100       2.4397800       0.9539800
 H       -3.3694100       4.0819700       1.5478100
 H       -2.6618200       2.5975800       2.3043200
 H       -1.2368700       0.6797700       2.8298600
 H       -1.2517900      -1.7349000       4.3155800
 H       -2.4578600      -1.9377000       3.0193700
 H       -2.6113300      -0.5816500       4.1762700
 H        1.4165500       1.3048800      -1.2995700
 H        3.6632500       0.9495100      -2.2809200
 H        5.2803900      -0.6036400      -1.1823200
 H        4.6279400      -1.7877200       0.9146700
 H        2.3829000      -1.4400300       1.8953900

