%chk=dist_117_reactant_2.chk
%mem=2GB
%nprocshared=2
#P AM1 Freq NoSymm

dipolar_001513 AM1 SPE on distorted reactant_2 @ TS geom (n=22)

0 1
 N        0.0563500       1.8269800      -0.0581600
 C        0.2435700       3.1700100       0.1470100
 C        1.4367600       3.8306500      -0.5286200
 O       -0.5278100       3.8209000       0.8724400
 N        0.7554800       1.1917200      -1.0479700
 C        0.2602800       1.3477100      -2.4233000
 C        1.2916100       0.0307600      -0.5429200
 C        2.1321700       0.1878200       0.6208300
 N        2.8222900       0.2796900       1.5535100
 C        1.6857400      -1.0864700      -1.4748900
 O        1.3137600      -1.1970800      -2.6182300
 O        2.4445300      -1.9728500      -0.8369400
 C        2.7339200      -3.1966900      -1.5352700
 H        1.3021100       3.9458900      -1.6621400
 H        2.3926600       3.3344400      -0.3968800
 H        1.5559900       4.9145600      -0.1799500
 H        1.1020800       1.3216800      -3.1299400
 H       -0.2071100       2.3595200      -2.4666000
 H       -0.4676500       0.6015300      -2.6609100
 H        1.7833000      -3.7374300      -1.7047200
 H        3.2250500      -3.0037400      -2.4979300
 H        3.3785600      -3.7623200      -0.8694100

