%chk=dist_27_reactant_1.chk
%mem=2GB
%nprocshared=2
#P AM1 Freq NoSymm

dipolar_000298 AM1 SPE on distorted reactant_1 @ TS geom (n=13)

0 1
 N        0.0811900       2.9248200      -0.0477300
 C       -0.8562900       3.7453300       0.6800600
 N       -0.4328600       2.5051900      -1.1820500
 C        0.1633200       1.8449700      -2.1514900
 C       -0.5800300       1.3977600      -3.3627400
 H       -0.5556200       3.6393200       1.7997200
 H       -0.7367000       4.7123700       0.3982300
 H       -1.8902800       3.3722800       0.6487000
 H       -1.4297200       2.6494300      -1.3276800
 H        1.2462300       1.6086900      -1.9836900
 H       -0.5793700       0.2512500      -3.4715200
 H       -0.0637600       1.7651600      -4.2302100
 H       -1.5955800       1.7000000      -3.3092300

