%chk=dist_94_reactant_2.chk
%mem=2GB
%nprocshared=2
#P AM1 Freq NoSymm

dipolar_001261 AM1 SPE on distorted reactant_2 @ TS geom (n=16)

0 1
 C       -0.6437700       1.6893500       0.6936700
 C        0.2304700       2.6289900       1.2547800
 N        0.9416500       3.4135700       1.7710600
 O       -1.4180700       0.8932600       1.4675600
 C       -2.4394900       0.3291700       0.6778900
 O       -3.2813700      -0.4153000       1.1717200
 C       -2.1920700       0.8217300      -0.6342300
 C       -3.0134000       0.6100400      -1.8498900
 N       -1.1380000       1.6765300      -0.5456200
 C       -0.6679900       2.5162300      -1.6511500
 H       -2.3965300       0.4319200      -2.7294500
 H       -3.6727200      -0.2377100      -1.6579700
 H       -3.6195100       1.5104300      -2.0147900
 H        0.0485900       3.2503000      -1.2476900
 H       -0.1598000       1.9165500      -2.4265200
 H       -1.5366100       3.0150700      -2.0556500

