%chk=dist_193_reactant_1.chk
%mem=2GB
%nprocshared=2
#P AM1 Freq NoSymm

dipolar_002766 AM1 SPE on distorted reactant_1 @ TS geom (n=30)

0 1
 C       -8.1474300      -7.0514500       3.2129500
 N       -8.2300500      -5.8151700       2.4547400
 C       -8.7004300      -4.6872500       3.0233200
 O       -9.2963100      -4.7238100       4.1099500
 C       -8.5046100      -3.4454900       2.2177800
 C       -9.1065100      -1.4595300       3.4334600
 C       -9.9268800      -0.1602800       3.4327600
 C      -11.1590100      -0.1427100       4.2934500
 O       -9.5936000       0.7783600       2.7232800
 C       -8.4263200      -1.5585900       4.7644800
 O       -8.2339500      -0.4433400       5.3126200
 N       -8.0432800      -2.7068100       5.3154500
 C       -7.1639700      -2.7301700       6.4625300
 N       -9.3393600      -2.3448800       2.4369500
 C       -9.9486800      -1.7888300       1.2066600
 H       -7.4651200      -6.9277000       4.0942300
 H       -7.7403500      -7.8365000       2.5784400
 H       -9.1213500      -7.3783100       3.6126700
 H       -7.6969700      -5.7268200       1.6350300
 H       -8.6017900      -3.7309900       1.1410100
 H      -11.5243800       0.9337900       4.4204900
 H      -11.9716200      -0.7065000       3.8419600
 H      -10.9948500      -0.5486000       5.3143000
 H       -8.4523400      -3.6019800       4.9477400
 H       -6.2331900      -2.1623000       6.2139500
 H       -6.8765100      -3.7693100       6.6595100
 H       -7.6184500      -2.2853700       7.3276200
 H      -10.8752700      -1.2386800       1.4333300
 H       -9.2225200      -1.0343700       0.7638700
 H      -10.1458600      -2.5574100       0.4921700

