%chk=dist_20_reactant_1.chk
%mem=2GB
%nprocshared=2
#P AM1 Freq NoSymm

dipolar_000206 AM1 SPE on distorted reactant_1 @ TS geom (n=8)

0 1
 C        1.1216200       3.7657300      -0.6543300
 O        1.3131100       2.3217200      -0.7559800
 C        0.2104400       1.8066200      -0.2501900
 C       -0.8233800       1.5066300       0.2260800
 Cl      -2.3717000       1.3917600       0.8792900
 H        0.9438900       4.0016300       0.4290200
 H        1.9589100       4.2344400      -1.0452700
 H        0.1731300       4.0205800      -1.2009800

