%chk=dist_52_reactant_1.chk
%mem=2GB
%nprocshared=2
#P AM1 Freq NoSymm

dipolar_000568 AM1 SPE on distorted reactant_1 @ TS geom (n=22)

0 1
 C       -1.4735000      -2.8917100       1.6807800
 C       -1.6658000      -1.4097900       1.8343900
 O       -1.5567800      -0.8603900       2.9247200
 C       -1.9383600      -0.6211000       0.6200100
 C       -2.1338600      -1.1298000      -0.8083300
 C       -3.6919800      -1.1794200      -0.9690800
 C       -4.1098700       0.3209600      -0.9396500
 C       -2.7377500       1.0481800      -0.7666900
 C       -1.8128200       0.1393800      -1.6093800
 C       -2.4356100       0.6113300       0.6270700
 H       -1.4677300      -3.3613600       2.6710600
 H       -2.2616300      -3.3400900       1.0532000
 H       -0.5095300      -3.0947700       1.1816100
 H       -1.6162500      -2.0492200      -1.0860400
 H       -4.1561000      -1.7518300      -0.1524200
 H       -3.9617200      -1.6052800      -1.9147000
 H       -4.7378300       0.5941800      -0.0557900
 H       -4.5684700       0.6704600      -1.8220100
 H       -2.7033000       2.1376400      -1.0006700
 H       -2.1357100       0.0771400      -2.6601500
 H       -0.7372000       0.3845400      -1.5909400
 H       -2.7169800       1.1889300       1.5155600

