%chk=dist_17_reactant_2.chk
%mem=2GB
%nprocshared=2
#P AM1 Freq NoSymm

dipolar_000172 AM1 SPE on distorted reactant_2 @ TS geom (n=9)

0 1
 C       -1.1234100       1.0432500       0.7317600
 C       -2.5504800       1.0015400       0.6165500
 C       -3.1679100       1.7086400      -0.5735500
 O       -3.2586800       0.3656700       1.4176700
 C        0.2210100       0.9313500       0.7619400
 F        0.9880700       1.8273200       1.5434400
 H       -4.2723300       1.6690600      -0.5097500
 H       -2.8506300       1.2085000      -1.5063200
 H       -2.8288800       2.7490400      -0.6272100

