%chk=dist_30_reactant_2.chk
%mem=2GB
%nprocshared=2
#P AM1 Freq NoSymm

dipolar_000339 AM1 SPE on distorted reactant_2 @ TS geom (n=25)

0 1
 C       -4.2870500      -0.8873300       0.8836600
 N       -3.3097600      -0.5255500      -0.1315300
 C       -2.0017200      -0.7548100       0.0739100
 O       -1.5869500      -1.4597600       0.9946900
 C       -1.0424800      -0.0418200      -0.8577600
 C       -1.5246800       0.3460300      -2.1558900
 N       -1.9306600       0.7445200      -3.1720100
 O        0.2312200      -0.4708800      -0.9173400
 C        0.9728000      -0.3263400       0.2652200
 C        2.3937400      -0.7410700       0.0598600
 C        3.1416500      -1.1133400       1.1874200
 C        4.5142800      -1.3467700       1.0824000
 C        5.1513300      -1.2305000      -0.1570600
 C        4.4044200      -0.8981900      -1.2930000
 C        3.0323300      -0.6516400      -1.1886800
 H       -4.0337700      -0.3931000       1.8453700
 H       -4.3167700      -1.9698000       1.0607700
 H       -5.2749200      -0.5477900       0.5640300
 H       -3.6034900       0.0972400      -0.8703100
 H        0.4601400      -0.8544400       1.1049200
 H        2.6267600      -1.2170500       2.1448100
 H        5.0832100      -1.6004800       1.9772400
 H        6.2279700      -1.3856700      -0.2281900
 H        4.9118600      -0.8024600      -2.2628600
 H        2.4609500      -0.4076100      -2.0940600

