%chk=dist_121_reactant_2.chk
%mem=2GB
%nprocshared=2
#P AM1 Freq NoSymm

dipolar_001534 AM1 SPE on distorted reactant_2 @ TS geom (n=14)

0 1
 C        1.2794600      -0.8194900      -1.0152800
 C        1.1038500      -2.1848100      -1.5932000
 C        1.7689200      -3.3280500      -0.8844100
 O        0.4309600      -2.3116600      -2.6033100
 O        2.1796000      -0.6647600      -0.0077300
 C        2.0701900       0.6802700       0.2941300
 C        3.2295400       1.1495300       1.0562600
 N        4.1004000       1.5220000       1.7284600
 O        1.9343600       1.3360000      -0.9573000
 C        1.2947800       0.4483300      -1.7880400
 O        0.8860400       0.7562900      -2.8753700
 H        2.8265200      -3.3965900      -1.1776200
 H        1.2627000      -4.2740100      -1.1633400
 H        1.7295900      -3.1942400       0.2066100

