%chk=dist_138_reactant_1.chk
%mem=2GB
%nprocshared=2
#P AM1 Freq NoSymm

dipolar_001824 AM1 SPE on distorted reactant_1 @ TS geom (n=22)

0 1
 C       -3.6005100      -3.4983900      -0.4068300
 N       -2.8098000      -2.5550500       0.3534400
 C       -2.8162700      -1.2381100       0.0625600
 O       -3.5513100      -0.7659400      -0.8259300
 C       -1.9172600      -0.3688100       0.8446400
 C       -2.0202300       1.0945600       0.9484100
 O       -1.2676200       1.7376800       1.7118200
 N       -2.9974800       1.6763000       0.2288600
 C       -3.1598800       3.1120100       0.2118700
 O       -0.9445300      -1.0114500       1.4542500
 C        0.1130000      -0.6038400       2.1048300
 C        1.0424000      -1.5962300       2.4739300
 N        1.8651400      -2.3642500       2.8060500
 H       -3.5228300      -4.4651000       0.0958800
 H       -4.6605100      -3.1783300      -0.3983800
 H       -3.2683800      -3.5791700      -1.4365800
 H       -2.1296900      -2.8743100       1.0282100
 H       -3.4483000       1.0811200      -0.4762400
 H       -2.3167600       3.6324200      -0.2559900
 H       -3.2629700       3.4882200       1.2464800
 H       -4.0807500       3.3526200      -0.3360100
 H        0.3644600       0.4633900       2.1085100

