%chk=dist_155_reactant_1.chk
%mem=2GB
%nprocshared=2
#P AM1 Freq NoSymm

dipolar_002132 AM1 SPE on distorted reactant_1 @ TS geom (n=28)

0 1
 C       -3.3251400      -1.1231700      -3.4868500
 N       -2.3214900      -1.2624400      -2.4680500
 C       -2.1477900      -0.3512200      -1.4919700
 O       -2.8273100       0.6830500      -1.4298200
 C       -1.1501100      -0.8117500      -0.4683000
 C       -1.7635900      -1.0183000       0.8596200
 O       -2.9980400      -1.2472300       0.9123300
 N       -1.0146800      -0.9857100       1.9758200
 C       -1.5696400      -1.3854400       3.2498300
 C        0.0727100      -1.3085600      -0.8693100
 O        0.7843200      -2.2514700      -0.2596200
 C        0.1721700      -3.2642200       0.5615300
 O        0.6184100      -0.8825100      -2.0004200
 C        1.8581900      -1.4264700      -2.4746600
 H       -3.1898000      -1.9499000      -4.1826500
 H       -4.3273300      -1.1782800      -3.0380100
 H       -3.2096800      -0.1710600      -3.9941300
 H       -1.7360000      -2.0984200      -2.4088600
 H        0.0088200      -0.7697000       1.9597000
 H       -2.3971700      -0.7338100       3.5586300
 H       -1.9569400      -2.4229800       3.1959900
 H       -0.7802000      -1.3500000       4.0133600
 H        0.6180200      -4.2028100       0.2417100
 H        0.4438000      -3.0465100       1.6095800
 H       -0.9251800      -3.3046700       0.4485700
 H        1.9828600      -1.0002400      -3.4852500
 H        1.7942700      -2.5213900      -2.5279100
 H        2.6896500      -1.1115000      -1.8329800

