%chk=dist_37_reactant_1.chk
%mem=2GB
%nprocshared=2
#P AM1 Freq NoSymm

dipolar_000411 AM1 SPE on distorted reactant_1 @ TS geom (n=21)

0 1
 C        0.8601500      -0.5703600       0.2359100
 F        1.4602500      -1.3764700       1.2426400
 C        1.7788700      -0.8719700      -1.0103100
 C        1.9570400      -2.3231600      -1.4156700
 O        2.5039300       0.0070300      -1.4661100
 C       -0.5820700      -0.9328100       0.0737200
 C       -1.3184100      -1.2325400       1.2987200
 C       -2.6249900      -1.9964600       1.2838100
 O       -0.8560900      -0.8772700       2.3981900
 C       -1.0866900      -0.9007700      -1.2733300
 C       -2.5575800      -1.0311400      -1.6040700
 O       -0.2921400      -0.7010900      -2.2208400
 H        2.6685700      -2.8338200      -0.7453800
 H        1.0567100      -2.9295700      -1.4927400
 H        2.4759600      -2.3604100      -2.4602900
 H       -3.4571100      -1.3270300       1.0550900
 H       -2.7965300      -2.4194600       2.2932800
 H       -2.6274000      -2.8163800       0.5449600
 H       -2.7268400      -0.6160500      -2.6096800
 H       -3.1883900      -0.4788300      -0.8800900
 H       -2.8576800      -2.0736300      -1.5895200

