%chk=dist_158_reactant_2.chk
%mem=2GB
%nprocshared=2
#P AM1 Freq NoSymm

dipolar_002185 AM1 SPE on distorted reactant_2 @ TS geom (n=28)

0 1
 C       -0.8241300      -0.3514300      -0.0803000
 C       -1.7374400      -1.5552100       0.4146400
 C       -2.4271800      -2.3318100      -0.5300400
 C       -3.2677200      -3.3862700      -0.1604200
 C       -3.4623200      -3.6955400       1.1858900
 C       -2.8288200      -2.9071800       2.1519200
 C       -1.9930900      -1.8446900       1.7726500
 C       -1.7596300       0.9187400       0.0094900
 C       -3.1541200       0.8034200      -0.1403000
 C       -3.9687500       1.9285800      -0.3101700
 C       -3.4163400       3.2108400      -0.3169500
 C       -2.0416400       3.3472000      -0.1271000
 C       -1.2324400       2.2177600       0.0401800
 C        0.4062900      -0.2289600       0.9365100
 C        0.8551100      -1.4908200       1.4754200
 N        1.2691800      -2.5051300       1.8709900
 C        0.4783300       0.7776700       1.9749800
 N        0.6746500       1.6027300       2.7727100
 H       -2.3390600      -2.0896800      -1.5753600
 H       -3.7658100      -3.9614000      -0.9474400
 H       -4.1189800      -4.5416600       1.4606000
 H       -3.0081800      -3.1506000       3.2208300
 H       -1.5615400      -1.2703400       2.5898500
 H       -3.6405500      -0.1720000      -0.1435500
 H       -5.0500200       1.8009300      -0.4574000
 H       -4.0463600       4.0943100      -0.4657800
 H       -1.5764700       4.3357700      -0.1263400
 H       -0.1731200       2.3938700       0.1740600

