%chk=dist_151_reactant_2.chk
%mem=2GB
%nprocshared=2
#P AM1 Freq NoSymm

dipolar_002016 AM1 SPE on distorted reactant_2 @ TS geom (n=22)

0 1
 C        0.7342400      -1.3037100      -0.3522800
 C        1.2504200      -2.4352100       0.4978300
 F        0.8003000      -3.6353400       0.0358600
 F        0.9335500      -2.3789400       1.7983600
 F        2.5965200      -2.5103500       0.4373500
 C        1.2450300      -1.3584800      -1.8371800
 C        2.7472500      -0.9934500      -1.8376900
 C        2.7831200       0.3124400      -1.5472700
 C        1.3119100       0.7207900      -1.3860500
 O        0.6722700      -0.1425600      -2.3431000
 C        0.8035300       0.0791900      -0.0586000
 C        1.0438500       0.7426600       1.2371100
 O        0.7855400       0.3023300       2.3446000
 O        1.5841200       1.9604400       1.0485000
 C        1.8375000       2.7476100       2.2211200
 H        0.9955300      -2.2520100      -2.3997700
 H        3.6243600      -1.6518500      -2.0756200
 H        3.6525400       1.0191100      -1.4757700
 H        1.0620000       1.7587500      -1.5332500
 H        0.8813600       2.9253500       2.7722900
 H        2.5446400       2.2637900       2.8850000
 H        2.2203800       3.7108900       1.8630900

