%chk=dist_43_reactant_2.chk
%mem=2GB
%nprocshared=2
#P AM1 Freq NoSymm

dipolar_000484 AM1 SPE on distorted reactant_2 @ TS geom (n=22)

0 1
 C        2.9787900       0.0337700       2.7417800
 O        2.3258600       0.3971200       1.5227100
 C        2.3046800      -0.5390000       0.5507100
 O        2.9080800      -1.5953500       0.6463000
 C        1.4487000      -0.1303500      -0.5836300
 C        1.5028300      -0.8434000      -1.8829200
 C        0.8863800      -0.1320200      -3.0635000
 O        1.9543400      -1.9824000      -1.9916500
 N        0.9813900       1.1779900      -0.6118000
 C       -0.0762300       1.5303200       0.0722400
 C       -0.4056400       3.0431200       0.1650900
 C       -0.8266000       3.7613400      -1.0852100
 O       -0.3998900       3.5505200       1.2688200
 H        4.0391200      -0.1832700       2.5746300
 H        2.4917300      -0.8494500       3.1912900
 H        2.8649800       0.8980600       3.4064900
 H       -0.1798100       0.0521200      -2.8413700
 H        1.3547600       0.8417400      -3.2570000
 H        0.9604400      -0.7687200      -3.9620100
 H       -1.2034800       4.8096500      -0.8325800
 H       -1.6730800       3.2196800      -1.5530900
 H       -0.0373300       3.8485200      -1.8286400

