%chk=dist_90_reactant_2.chk
%mem=2GB
%nprocshared=2
#P AM1 Freq NoSymm

dipolar_001225 AM1 SPE on distorted reactant_2 @ TS geom (n=16)

0 1
 C        3.6574800       0.5971500      -2.8667500
 N        3.0697100      -0.0338700      -1.7081900
 C        2.7966000       0.6625100      -0.5818900
 O        3.0555700       1.8703000      -0.4372500
 C        2.2920400      -0.1145400       0.5641900
 O        1.7802500      -1.3063700       0.5251300
 N        1.5713300      -1.9963200      -0.5942700
 C        1.1594500      -3.3261200      -0.2127000
 H        2.9697900       1.2845700      -3.3531600
 H        3.9520400      -0.1931100      -3.5774800
 H        4.5695500       1.1545100      -2.5779900
 H        2.6205500      -0.9519600      -1.7662700
 H        2.2320900       0.3829300       1.5187000
 H        2.0348200      -3.9078200      -0.1521800
 H        0.5622700      -3.3703900       0.7148200
 H        0.5055300      -3.7099200      -1.0463000

