%chk=dist_137_reactant_2.chk
%mem=2GB
%nprocshared=2
#P AM1 Freq NoSymm

dipolar_001785 AM1 SPE on distorted reactant_2 @ TS geom (n=26)

0 1
 C       -1.4711700      -2.2234800       0.3900900
 C       -0.8816300      -3.1891700       0.7716200
 C        0.3235000      -4.0039400       0.8177800
 F        0.7467700      -4.2515000       2.1060600
 F        0.1345600      -5.2553300       0.2541700
 C        1.4161700      -3.2651800       0.0569800
 C        0.9537400      -2.7606000      -1.3250500
 C        0.7290300      -1.2415900      -1.4581900
 C       -0.1627400      -0.4814900      -0.4626200
 C       -1.6466700      -0.9354900      -0.3052200
 C       -2.3150400      -1.1552200      -1.6714800
 C       -2.4133900       0.1208900       0.4995000
 H        1.6829000      -2.4075000       0.7028600
 H        2.2331700      -3.9384100       0.0048300
 H        1.7077700      -3.0465900      -2.0603800
 H        0.0286100      -3.3053500      -1.6323900
 H        0.3452500      -1.0438500      -2.4703600
 H        1.7109300      -0.7603600      -1.4035300
 H       -0.1850000       0.5436900      -0.7273600
 H        0.3013900      -0.5500200       0.5636500
 H       -2.1869600      -0.2631600      -2.2536100
 H       -3.3827500      -1.3759200      -1.5474100
 H       -1.8587700      -2.0155900      -2.2025600
 H       -1.9738200       0.2620100       1.5017900
 H       -3.4640700      -0.1470200       0.6229800
 H       -2.3435000       1.0633600      -0.0483900

