%chk=dist_102_reactant_1.chk
%mem=2GB
%nprocshared=2
#P AM1 Freq NoSymm

dipolar_001353 AM1 SPE on distorted reactant_1 @ TS geom (n=18)

0 1
 C        4.8433400       0.5301100       0.7634800
 C        3.7839000      -0.4937800       1.0856300
 O        4.0850500      -1.5756600       1.6017200
 C        2.3773500      -0.2079500       0.8019300
 C        1.7269100       0.7540500       0.1036200
 Br       2.3491800       2.2063800      -0.8565400
 C        0.2224900       0.3820900       0.1413500
 O        0.1744100      -0.1686900       1.4720800
 C        1.2185700      -1.1484900       1.2499600
 C        0.6577500      -1.8972500       0.0166200
 C        0.0358900      -0.8723400      -0.7182200
 H        4.9455500       0.6708800      -0.3199600
 H        5.8334500       0.1945200       1.1624600
 H        4.6222200       1.5269400       1.1977000
 H       -0.4588900       1.2110800      -0.0036400
 H        1.4425000      -1.7498500       2.1185500
 H        1.2650500      -2.7263600      -0.4508500
 H       -0.0524600      -0.7971200      -1.8302100

