%chk=dist_0_reactant_2.chk
%mem=2GB
%nprocshared=2
#P AM1 Freq NoSymm

dipolar_000009 AM1 SPE on distorted reactant_2 @ TS geom (n=11)

0 1
 C        2.3197200      -0.2776100       1.5018600
 C        1.5038300       0.0101300       0.2401300
 C        2.3085700       0.4480000      -0.8935000
 N        2.9156700       0.9047700      -1.7784500
 C       -0.6341600      -0.8001000      -0.0895000
 C       -1.5645200      -1.8669100      -0.4296500
 N       -2.4458400      -2.5883300      -0.6694400
 N        0.6364100      -1.0768300      -0.1299900
 H        2.8902600       0.6215400       1.7493300
 H        1.6206000      -0.5137700       2.3139200
 H        3.0679100      -1.1305300       1.4537200

