%chk=dist_2_reactant_2.chk
%mem=2GB
%nprocshared=2
#P AM1 Freq NoSymm

dipolar_000027 AM1 SPE on distorted reactant_2 @ TS geom (n=17)

0 1
 C       -1.3734000      -0.5939800       0.8458500
 C       -2.6669500      -0.0390600       0.2760400
 C       -3.2030100       0.8210800       1.4677000
 C       -2.1594000       1.9785500       1.5492000
 C       -1.1680600       1.6370700       0.3898300
 C       -2.1441100       1.0709000      -0.6616300
 C       -0.4812400       0.3641900       0.8721900
 H       -1.2590100      -1.6423400       1.1743000
 H       -3.4006600      -0.7428400      -0.1793700
 H       -4.1829400       1.1708700       1.2734400
 H       -3.2103200       0.1749200       2.3776400
 H       -2.6142900       2.9220900       1.3975700
 H       -1.6022800       1.9772400       2.5122400
 H       -0.5167900       2.4663300       0.0653100
 H       -1.6679000       0.7150600      -1.5923600
 H       -2.9366900       1.8089500      -0.9423800
 H        0.5143000       0.3236500       1.3035900

