%chk=dist_157_reactant_1.chk
%mem=2GB
%nprocshared=2
#P AM1 Freq NoSymm

dipolar_002154 AM1 SPE on distorted reactant_1 @ TS geom (n=25)

0 1
 C        4.3810000       1.6092600       0.7447800
 O        3.5479400       0.8138200      -0.0876700
 C        2.3794000       0.4153600       0.4265400
 O        2.0093400       0.5818900       1.5544800
 C        1.7423500      -0.3608500      -0.7026600
 C        2.2914300      -1.7141000      -0.9637300
 C        2.1273300      -2.3141100      -2.3259200
 O        2.9218000      -2.2428200      -0.0551800
 O        0.8368600       0.0674900      -1.5144600
 C        0.0409800       1.1300400      -1.6106700
 C       -0.9555000       1.0326800      -2.6039300
 N       -1.7906600       0.9959500      -3.4228800
 C        0.1989100       2.3287400      -0.7968500
 O        1.2250300       2.6129900      -0.1929200
 O       -0.8887000       3.0952000      -0.8468200
 C       -0.8446500       4.3353700      -0.1242000
 H        5.2266200       1.8102800       0.1023800
 H        3.8269400       2.5120600       0.9975200
 H        4.6432000       1.0365200       1.6231900
 H        1.0820400      -2.4513000      -2.5917600
 H        2.5604800      -1.5910000      -3.0470100
 H        2.6750700      -3.2560500      -2.3681900
 H       -0.6998600       4.1552500       0.9456000
 H       -1.8101700       4.8265300      -0.3054700
 H       -0.0246000       4.9602400      -0.5148200

