%chk=dist_113_reactant_2.chk
%mem=2GB
%nprocshared=2
#P AM1 Freq NoSymm

dipolar_001462 AM1 SPE on distorted reactant_2 @ TS geom (n=23)

0 1
 C       -1.2380900       0.2642200       1.3360800
 C       -1.3570200      -0.7785900       2.3639900
 N       -1.4135000      -1.4981800       3.2784400
 C       -2.3090800       1.4114600       1.4347200
 C       -3.7185100       0.8297800       1.1173300
 C       -3.6603600       0.5549800      -0.4151300
 C       -2.1850000       0.9246600      -0.7708000
 C       -1.9981200       2.1648900       0.1307900
 C       -1.2952900      -0.1145400      -0.0875700
 C       -1.0738400      -1.4551500      -0.5753000
 C       -1.3137500      -1.7113600      -2.0472300
 O       -0.6630800      -2.3738600       0.1618400
 H       -2.2731200       1.9359500       2.3844200
 H       -4.0446300      -0.0200400       1.6879500
 H       -4.5206400       1.6522800       1.3239600
 H       -4.3740500       1.2490100      -1.0002600
 H       -3.9599800      -0.4536200      -0.6907000
 H       -2.0059000       1.0493400      -1.8384600
 H       -2.7067500       2.9619700      -0.0741800
 H       -0.9809900       2.5438400       0.1296700
 H       -2.3688700      -1.5877200      -2.3147700
 H       -0.7369200      -0.9750500      -2.6407500
 H       -0.9810900      -2.7302100      -2.3185800

