%chk=dist_103_reactant_1.chk
%mem=2GB
%nprocshared=2
#P AM1 Freq NoSymm

dipolar_001374 AM1 SPE on distorted reactant_1 @ TS geom (n=23)

0 1
 C       -3.2231900      -0.4358700       2.8930000
 N       -2.6162600      -0.2680200       1.5855100
 C       -1.8806700       0.8057300       1.2770800
 O       -1.7532500       1.8054900       1.9804600
 C       -1.1296800       0.6820100      -0.0566600
 C       -0.6174300       1.9589700      -0.7335800
 C        0.0304500       3.0156800       0.0918100
 O       -0.8214300       2.0617600      -1.9233600
 O       -1.6082800      -0.2951900      -0.7849200
 C       -0.7652200      -1.0974000      -1.6435700
 C       -1.6562800      -2.2800100      -2.0641200
 C       -0.2867200      -0.3964800      -2.8623500
 N        0.2220500      -0.0726500      -3.8547100
 H       -4.1436200      -1.0251600       2.8108000
 H       -2.5285900      -0.9626200       3.5762700
 H       -3.4549300       0.5447900       3.3241400
 H       -2.5687600      -1.0778400       0.9768200
 H        0.6462000       3.6296000      -0.5704900
 H        0.5987000       2.5971900       0.9183900
 H       -0.7630600       3.6566100       0.5361500
 H       -1.0232600      -2.9665500      -2.6115500
 H       -2.5540600      -2.0535300      -2.7129800
 H       -2.0331700      -2.7540700      -1.1431400

