%chk=dist_165_reactant_2.chk
%mem=2GB
%nprocshared=2
#P AM1 Freq NoSymm

dipolar_002319 AM1 SPE on distorted reactant_2 @ TS geom (n=18)

0 1
 C        5.2446600       0.1654200      -1.3217900
 O        3.8551300      -0.1697500      -1.3573800
 C        3.3938300      -0.8478800      -0.3232600
 O        3.9697900      -1.2167000       0.6766600
 C        2.0234100      -1.1490900      -0.5854200
 N        1.0692500      -1.7697000      -0.9915700
 C       -0.0714900      -2.2864600      -1.3055300
 C       -0.6303700      -3.2392100      -0.4160300
 N       -1.1133200      -4.0678600       0.2434100
 C       -0.8126400      -1.8417000      -2.4997400
 C       -0.0521600      -1.1305600      -3.5773800
 O       -2.0037200      -2.1133500      -2.5903300
 H        5.8179700      -0.7710500      -1.2426200
 H        5.4295700       0.8075000      -0.4662400
 H        5.4239900       0.6620800      -2.2650800
 H        0.2256600      -1.8991300      -4.3131700
 H        0.8727200      -0.6528100      -3.2212700
 H       -0.7040300      -0.3988600      -4.0536600

