%chk=dist_55_reactant_2.chk
%mem=2GB
%nprocshared=2
#P AM1 Freq NoSymm

dipolar_000628 AM1 SPE on distorted reactant_2 @ TS geom (n=13)

0 1
 C        0.0615400       1.3137700      -0.3627400
 C        0.5864300       0.5202900       0.8750700
 O       -0.6159500      -0.1961200       1.2244900
 C       -0.7703400      -0.8542100      -0.0544800
 C        0.6195700      -1.5493200      -0.1325300
 Cl       0.9181500      -3.0542700      -0.8839200
 C        1.4714700      -0.6841600       0.4371800
 Br       3.3210600      -0.8005100       0.6170300
 C       -0.7689700       0.3537200      -1.0113200
 H        0.7949000       1.9570700      -0.9560600
 H        0.9856800       1.1250900       1.6745700
 H       -1.6298600      -1.5178500      -0.0850100
 H       -0.9106000       0.2058800      -2.1147000

