%chk=dist_33_reactant_2.chk
%mem=2GB
%nprocshared=2
#P AM1 Freq NoSymm

dipolar_000372 AM1 SPE on distorted reactant_2 @ TS geom (n=13)

0 1
 C       -1.0218000       0.3335700       1.1234700
 C       -2.1416500       0.3326900       0.0467800
 O       -1.4086300       0.7225500      -1.1220500
 C       -0.8106400       1.8935700      -0.5190900
 C       -2.0723100       2.6512700      -0.0314800
 C       -2.8779400       1.6544400       0.3243100
 F       -4.0468600       1.6660700       0.9666300
 C       -0.2006800       1.2662600       0.7678100
 H       -1.0279000      -0.3214900       1.9872800
 H       -2.7721600      -0.5606100      -0.1489900
 H       -0.1627000       2.4202700      -1.2471700
 H       -2.1288900       3.7032100       0.1478700
 H        0.6961100       1.6423900       1.2402400

