%chk=dist_84_reactant_1.chk
%mem=2GB
%nprocshared=2
#P AM1 Freq NoSymm

dipolar_001172 AM1 SPE on distorted reactant_1 @ TS geom (n=14)

0 1
 C        4.1757500       0.9195800       0.4790000
 O        3.4425000      -0.2588500       0.1302600
 C        2.5347800      -0.1353700      -0.8679400
 O        2.3266100       0.9354600      -1.4345400
 C        1.8864700      -1.4022400      -1.1280800
 N        0.9781100      -1.5827300      -2.1234700
 C       -0.1768000      -0.7284600      -2.1476100
 H        4.8382800       0.6427100       1.3062600
 H        3.5006300       1.7240900       0.7949000
 H        4.7849000       1.2786200      -0.3735800
 H        2.4474400      -2.3175700      -0.8223800
 H        0.8308500      -2.5534900      -2.3919200
 H       -0.7402900      -1.0490800      -3.1162000
 H        0.2246600       0.3292700      -2.3331400

