%chk=dist_37_reactant_2.chk
%mem=2GB
%nprocshared=2
#P AM1 Freq NoSymm

dipolar_000411 AM1 SPE on distorted reactant_2 @ TS geom (n=14)

0 1
 C       -2.7040600       2.4588600      -1.2770600
 C       -1.3215400       2.1071800      -0.8242900
 O       -0.3435300       2.1760000      -1.5457200
 C       -1.2022700       1.7265500       0.6282700
 N       -0.0864900       1.5484600       1.2723300
 C        1.0952400       0.9947200       0.6426000
 C        2.2557100       1.1718500       1.5268300
 N        3.1901700       1.2117400       2.2200100
 H       -3.4777300       1.8504600      -0.7954100
 H       -2.9155900       3.5203400      -1.0180600
 H       -2.7609600       2.3630100      -2.3742400
 H       -2.1125100       1.8077000       1.2480600
 H       -0.1718400       1.3951100       2.2671600
 H        1.2768600       1.5835700      -0.3302200

