%chk=dist_35_reactant_2.chk
%mem=2GB
%nprocshared=2
#P AM1 Freq NoSymm

dipolar_000401 AM1 SPE on distorted reactant_2 @ TS geom (n=13)

0 1
 C       -1.3725700       0.5987100       0.7219400
 Cl      -1.3260300       2.0127400       1.7325200
 C       -2.5940200       0.1372500      -0.0875900
 C       -3.3565200      -0.7587900       0.9306700
 C       -2.5926800      -1.8437400       1.0776900
 C       -1.3718500      -1.6058100       0.1413700
 O       -1.9936900      -0.8668600      -0.9186600
 C       -0.6448300      -0.4652700       0.8447000
 F        0.3917300      -0.6710400       1.6879600
 H       -3.1530100       0.8764500      -0.6925600
 H       -4.2191200      -0.4313800       1.4545300
 H       -2.6537200      -2.6547600       1.7585400
 H       -0.7943200      -2.4689500      -0.2364200

