%chk=dist_41_reactant_2.chk
%mem=2GB
%nprocshared=2
#P AM1 Freq NoSymm

dipolar_000455 AM1 SPE on distorted reactant_2 @ TS geom (n=20)

0 1
 C        4.6295600      -0.2319000       0.4352300
 O        3.3334300       0.1001900      -0.0851800
 C        2.4015800       0.4467100       0.8072300
 O        2.6038300       0.5386700       2.0062600
 C        1.0653200       0.5880300       0.2088700
 N        0.0209600       1.1530700       0.9784400
 C       -1.1018700       0.6613900       0.1247900
 C       -2.3847000       1.4829900       0.5169000
 C       -3.3563500       1.7916300      -0.5724000
 O       -2.5857600       1.7067400       1.6925700
 O       -0.6090200       1.1843500      -1.1792900
 C        0.7429200       0.9166500      -1.1840500
 O        1.3972000       0.9186600      -2.2022800
 H        5.0727100       0.6292800       0.9522400
 H        5.2360000      -0.5096400      -0.4336000
 H        4.5535900      -1.0801000       1.1329900
 H       -0.0385500       0.8958500       1.9502400
 H       -3.4967600       0.8648200      -1.1591000
 H       -4.3104100       2.1332300      -0.1515200
 H       -2.9434000       2.5410200      -1.2588400

