%chk=dist_71_reactant_2.chk
%mem=2GB
%nprocshared=2
#P AM1 Freq NoSymm

dipolar_000915 AM1 SPE on distorted reactant_2 @ TS geom (n=34)

0 1
 C        0.3030400       1.0193100       3.4395900
 N        0.1466300       0.8805600       2.0119200
 C       -1.0840800       0.7984900       1.4159800
 O       -2.1201600       0.9070000       2.1228400
 C       -1.1181300       0.6017600      -0.0155100
 C       -0.2118400       1.2762300      -0.9370200
 C        0.0125800       0.8386900      -2.2689100
 C        0.8738100       1.5147600      -3.1340800
 C        1.5794100       2.6450800      -2.7094100
 C        1.3862100       3.0927700      -1.3957000
 C        0.5053500       2.4382500      -0.5390300
 C       -2.7321300      -1.2356500      -0.0177100
 C       -3.7847800      -2.0130200      -0.7417500
 C       -2.2637500      -1.8218600       1.2866300
 N       -2.1923800      -0.1611100      -0.5474000
 C       -2.8739400       0.3764200      -1.7568200
 H        1.3746400       1.0994200       3.6746200
 H       -0.2028200       1.9251600       3.8023600
 H       -0.1101300       0.1583400       3.9947200
 H        0.9591300       0.5821200       1.4711600
 H       -0.4683000      -0.0716000      -2.6196500
 H        1.0156100       1.1339700      -4.1497900
 H        2.2606300       3.1663800      -3.3799400
 H        1.9162300       3.9816400      -1.0371900
 H        0.3627800       2.8339100       0.4694800
 H       -3.7743400      -3.0883400      -0.4329500
 H       -4.6892300      -1.5662800      -0.4144800
 H       -3.7248800      -2.0080700      -1.8459100
 H       -2.9989600      -1.3660500       1.9786100
 H       -2.3911800      -2.9233700       1.3384700
 H       -1.2697600      -1.5727000       1.6379900
 H       -2.6805700      -0.2491000      -2.6364000
 H       -2.5290100       1.3942400      -1.9514600
 H       -3.9526300       0.4023200      -1.5664100

