%chk=dist_55_reactant_1.chk
%mem=2GB
%nprocshared=2
#P AM1 Freq NoSymm

dipolar_000628 AM1 SPE on distorted reactant_1 @ TS geom (n=17)

0 1
 C       -3.8068900       0.4458900       1.0738900
 C       -3.6877400       0.5718100      -0.4215600
 O       -4.3109400      -0.1659500      -1.1829700
 C       -2.7742200       1.6088400      -0.9709800
 C       -2.9937000       2.0594600      -2.3939000
 N       -2.2760000       2.5264800      -0.1068900
 C       -1.0667400       2.6470700       0.3178500
 C       -0.6434400       3.7279900       1.2769500
 H       -4.3635700       1.2944500       1.5050600
 H       -2.8101800       0.4362800       1.5374800
 H       -4.3374000      -0.4877900       1.3131600
 H       -3.8295500       2.8021600      -2.5541400
 H       -3.2371100       1.1877200      -3.0080600
 H       -2.0773400       2.5323700      -2.7638600
 H        0.2613300       4.2133800       0.8995500
 H       -1.3847000       4.5946400       1.5337400
 H       -0.3870400       3.2857900       2.2618200

