%chk=dist_155_reactant_2.chk
%mem=2GB
%nprocshared=2
#P AM1 Freq NoSymm

dipolar_002132 AM1 SPE on distorted reactant_2 @ TS geom (n=25)

0 1
 C       -0.2751300       1.6619700      -0.0809600
 C       -0.0499200       1.7594400      -1.5052200
 N        0.1003300       1.9994300      -2.6344300
 C       -1.5936900       2.2502500       0.3654300
 O       -1.9714500       3.2604200      -0.2001300
 O       -2.1339700       1.6937100       1.4204800
 C       -3.3179500       2.3270800       1.9459500
 N        0.6891800       1.3923200       0.7626600
 C        1.9872400       0.9618200       0.4353200
 C        2.7902300       1.6984800      -0.5167300
 C        2.4856100       3.1656200      -0.7501400
 O        3.7852600       1.2058800      -1.0631700
 C        2.4379200      -0.1311700       1.2484000
 C        3.8134800      -0.7117300       1.0686500
 O        1.6946300      -0.6296900       2.1223500
 H       -3.0815100       3.3772700       2.2022800
 H       -4.1205500       2.2976400       1.2021600
 H       -3.5923100       1.7690600       2.8437900
 H        0.3950400       1.3771700       1.7294000
 H        2.4374600       3.3586200      -1.8261700
 H        1.5704000       3.5291500      -0.2656300
 H        3.3413300       3.7287200      -0.3446600
 H        4.5647200       0.0368200       0.7992000
 H        4.0792900      -1.2216600       2.0051700
 H        3.7937000      -1.4641500       0.2634200

