%chk=dist_4_reactant_1.chk
%mem=2GB
%nprocshared=2
#P AM1 Freq NoSymm

dipolar_000036 AM1 SPE on distorted reactant_1 @ TS geom (n=16)

0 1
 C        3.8847100      -0.1448600       0.1729300
 C        2.5095000       0.0402100      -0.3506500
 C        1.8435600      -0.5224400      -1.3591000
 F        2.2519900      -1.4414400      -2.2517100
 C        0.3627600      -0.1575600      -1.2096500
 O        0.5267600       1.1724900      -0.6869600
 C        1.3743800       0.7745400       0.4130700
 C        0.5105600      -0.3385000       1.0552800
 C       -0.1017000      -0.9220000       0.0531000
 H        4.3756200       0.8240200       0.2667400
 H        3.8563800      -0.5960100       1.1900600
 H        4.4449300      -0.7970800      -0.4840000
 H       -0.2859600      -0.1622900      -2.1077600
 H        1.6597600       1.6537600       1.0292800
 H        0.4898900      -0.5462100       2.1330600
 H       -0.7895100      -1.7778200       0.0550800

