%chk=dist_161_reactant_1.chk
%mem=2GB
%nprocshared=2
#P AM1 Freq NoSymm

dipolar_002247 AM1 SPE on distorted reactant_1 @ TS geom (n=14)

0 1
 C       -0.9411900      -0.2282300      -0.4877900
 Br      -2.8988200      -0.0147600      -0.9399200
 Br      -0.6736500      -2.1429900      -0.1008300
 C       -0.4910400       0.6098500       0.7311100
 O       -1.1697100       1.8095800       0.6992400
 C       -1.2237200       2.6002800       1.8935500
 O       -0.2756200       0.0872300       1.9725100
 C       -1.2258000      -0.6042500       2.8045000
 H       -1.3806400       3.6377500       1.5683500
 H       -0.3147100       2.5272300       2.4940600
 H       -2.0915700       2.2800400       2.5080800
 H       -1.3820600      -0.0068600       3.7252800
 H       -2.1430700      -0.8102600       2.3110900
 H       -0.7221700      -1.5637500       3.1125700

