%chk=dist_130_reactant_2.chk
%mem=2GB
%nprocshared=2
#P AM1 Freq NoSymm

dipolar_001701 AM1 SPE on distorted reactant_2 @ TS geom (n=12)

0 1
 C        2.7826600       2.6284800       2.3482300
 O        2.1472200       2.3944200       1.0828500
 C        2.6806700       1.4509400       0.3059100
 O        3.6601800       0.7795100       0.6012500
 C        1.9324800       1.3032500      -0.9385000
 N        2.2210400       0.2989800      -1.7056200
 O        1.6775500      -0.0389800      -2.7764600
 H        2.2417300       3.4601400       2.8119000
 H        2.7333200       1.7359900       2.9777800
 H        3.8366600       2.9091600       2.1803200
 H        1.0361700       1.9159900      -1.1798700
 H        3.0256200      -0.2857700      -1.4372100

