%chk=dist_192_reactant_2.chk
%mem=2GB
%nprocshared=2
#P AM1 Freq NoSymm

dipolar_002765 AM1 SPE on distorted reactant_2 @ TS geom (n=21)

0 1
 C       -5.4563100      -0.3678200       2.9851600
 C       -6.1720300       0.1949000       3.7530500
 C       -6.3025800       1.2342400       4.7480700
 Br      -6.8199100       0.5270900       6.5315800
 Br      -7.6324600       2.6029900       4.1847300
 C       -4.9192300       1.9038100       4.8524200
 C       -3.7587400       0.8955600       5.0120200
 C       -2.8000800       0.7764300       3.8097500
 C       -3.3556700       0.5700900       2.3937700
 C       -4.2509500      -0.6942600       2.2247400
 C       -4.4916000      -0.9846200       0.8088900
 N       -4.6488700      -1.1893200      -0.3225300
 H       -4.9761200       2.6004000       5.6539000
 H       -4.7894500       2.4631100       3.9066300
 H       -3.1675100       1.1883400       5.8814200
 H       -4.1619900      -0.1123400       5.2644400
 H       -2.2034700       1.6956500       3.7605300
 H       -2.0971500      -0.0460400       4.0128500
 H       -3.9957500       1.4453800       2.1010600
 H       -2.5614800       0.4972400       1.6954800
 H       -3.7458400      -1.5624700       2.6595700

