%chk=dist_179_reactant_1.chk
%mem=2GB
%nprocshared=2
#P AM1 Freq NoSymm

dipolar_002501 AM1 SPE on distorted reactant_1 @ TS geom (n=27)

0 1
 C        1.6597500      -2.5663500      -2.6942600
 N        1.1212600      -1.8801000      -1.5336000
 C        0.7171200      -2.5619000      -0.4530000
 O        0.8899500      -3.7729700      -0.3074900
 C       -0.0257200      -1.7639500       0.6429400
 Br      -1.9643100      -1.9440200       0.1951600
 C        0.1977800      -2.3503000       2.0477800
 C        1.6485300      -2.3616300       2.5691600
 C        2.2628300      -1.0842400       3.1872500
 C        3.1109300      -0.1667600       2.2858600
 C        2.3587900       1.0193800       1.7092800
 F        1.9463600       1.8795700       2.6938500
 F        3.1978100       1.7568500       0.9116400
 C        1.2293300       0.4208200       1.0098900
 C        0.4210700      -0.3947300       0.6863800
 H        1.8260400      -1.8337800      -3.4929300
 H        2.6126700      -3.0633900      -2.4591800
 H        0.9545800      -3.3344200      -3.0553100
 H        0.9117100      -0.8832600      -1.6423300
 H       -0.4438000      -1.7853700       2.7513000
 H       -0.1667800      -3.3629100       1.9866800
 H        1.6325600      -3.1183600       3.3767200
 H        2.3194000      -2.7670300       1.8025900
 H        2.9475400      -1.4095000       3.9747700
 H        1.4810800      -0.4927800       3.6969600
 H        3.4799800      -0.7335900       1.4004500
 H        3.9362600       0.2585200       2.7997200

