%chk=dist_8_reactant_1.chk
%mem=2GB
%nprocshared=2
#P AM1 Freq NoSymm

dipolar_000067 AM1 SPE on distorted reactant_1 @ TS geom (n=9)

0 1
 C       -1.4002100      -3.2026700      -1.4259600
 O       -0.7082400      -2.0275600      -0.8768400
 C       -1.5578800      -1.2490500      -0.3018100
 C       -2.4606300      -0.6219100       0.2053900
 C       -3.5523100       0.0234700       0.7200700
 N       -4.5435200       0.5089300       1.1186600
 H       -1.9377700      -3.6329000      -0.5328200
 H       -0.7274000      -3.7924900      -1.8670400
 H       -2.1949600      -2.7610200      -2.0950100

