%chk=dist_98_reactant_1.chk
%mem=2GB
%nprocshared=2
#P AM1 Freq NoSymm

dipolar_001298 AM1 SPE on distorted reactant_1 @ TS geom (n=22)

0 1
 C        3.2013600       1.6483900       2.7041800
 O        2.8130500       0.9191900       1.5312300
 C        2.0811200       1.5856200       0.6246200
 O        1.7902700       2.7665300       0.7497000
 C        1.6604100       0.7781100      -0.5173500
 C        1.8493200      -0.5149700      -0.8670700
 C        2.6213800      -1.6332300      -0.2735400
 C        1.1306000      -0.6326000      -2.2405800
 O        1.4725400       0.6764100      -2.7957900
 C        0.8691500       1.3990200      -1.6776700
 C       -0.5555100       0.8093000      -1.7536700
 C       -0.3685100      -0.4158000      -2.1536000
 H        2.3107200       1.9969900       3.2458600
 H        3.8289300       2.5106300       2.4358800
 H        3.7707400       0.9438100       3.3217200
 H        2.0025300      -2.5390900      -0.2187500
 H        3.4664700      -1.8732900      -0.9438400
 H        3.0262900      -1.3971300       0.7231500
 H        1.4220800      -1.4822700      -2.8435100
 H        0.9412000       2.4713900      -1.8002600
 H       -1.4549700       1.4464400      -1.7877100
 H       -1.1181600      -1.0730900      -2.6082600

