%chk=dist_157_reactant_2.chk
%mem=2GB
%nprocshared=2
#P AM1 Freq NoSymm

dipolar_002154 AM1 SPE on distorted reactant_2 @ TS geom (n=20)

0 1
 C       -1.4107200      -0.5498300       0.3681900
 C       -1.8075600       0.5785500       1.2573400
 F       -2.6942500       1.4042800       0.6726300
 F       -0.7858900       1.3388200       1.6862300
 F       -2.4198500       0.0956400       2.3812700
 C       -2.3586100      -1.1149800      -0.6885700
 C       -3.1866800      -2.1710100       0.1252300
 C       -2.1381800      -3.2744100       0.4413600
 C       -0.8385700      -2.7186000      -0.2310600
 C       -1.4308000      -2.0476600      -1.4827000
 C       -0.5740700      -1.5322600       0.6645500
 Cl       0.3372500      -1.7563900       2.1335900
 H       -2.9519100      -0.3865900      -1.2598200
 H       -3.5895600      -1.7019500       1.0429400
 H       -3.9638000      -2.5413300      -0.4776000
 H       -1.9229500      -3.3891700       1.5292900
 H       -2.3565500      -4.2037000       0.0085000
 H        0.0016300      -3.4225600      -0.3842500
 H       -0.7102300      -1.5354600      -2.1513400
 H       -2.0001800      -2.7625700      -2.0945400

