%chk=dist_102_reactant_2.chk
%mem=2GB
%nprocshared=2
#P AM1 Freq NoSymm

dipolar_001353 AM1 SPE on distorted reactant_2 @ TS geom (n=24)

0 1
 C       -0.8265400      -3.1263300       0.6877700
 N       -1.9316500      -2.2875200       0.6885600
 C       -2.4133100      -1.8610100       2.0141600
 C       -2.2698200      -1.6515900      -0.4719500
 C       -2.1761400      -2.4668300      -1.7436200
 C       -3.2355100      -0.5233500      -0.4674400
 C       -3.1160000       0.5642600       0.4276100
 C       -3.9708500       1.6637000       0.3538100
 C       -4.9767900       1.7189100      -0.6169500
 C       -5.1177700       0.6526600      -1.5091100
 C       -4.2624100      -0.4498100      -1.4359700
 H       -0.8579800      -3.8806400      -0.1582800
 H       -0.7806000      -3.7021100       1.6935300
 H       -1.7457600      -1.0893900       2.4148700
 H       -2.4283900      -2.7158100       2.7055600
 H       -3.4443300      -1.4566900       1.9669400
 H       -2.4122400      -1.8830200      -2.6004200
 H       -1.1944500      -2.9114600      -1.8471200
 H       -2.9053300      -3.3652500      -1.7367400
 H       -2.3372600       0.5541600       1.1744400
 H       -3.8263600       2.4896100       1.0509900
 H       -5.6260800       2.6061200      -0.6832300
 H       -5.8989500       0.7006300      -2.2826200
 H       -4.4327000      -1.2627700      -2.1446300

