%chk=dist_139_reactant_2.chk
%mem=2GB
%nprocshared=2
#P AM1 Freq NoSymm

dipolar_001833 AM1 SPE on distorted reactant_2 @ TS geom (n=22)

0 1
 C        0.6371300      -0.1029500       0.5594000
 C        1.0075400      -0.9083500      -0.6944900
 O        0.8390100       0.1086900      -1.7085200
 C        1.7618000       1.0449800      -1.1197900
 C        3.0288900       0.1583100      -0.9974100
 C        4.4045000       0.6948700      -1.1453600
 C        2.5460500      -1.0822100      -0.7450900
 C        3.1966900      -2.3719800      -0.4915600
 O        2.5884200      -3.3558200      -0.0940400
 O        4.5161300      -2.3919700      -0.7371200
 C        5.2051300      -3.6232200      -0.4565500
 C        1.0526900       1.2579600       0.2694600
 H        0.6623200      -0.5977000       1.5737100
 H        0.4229600      -1.8017300      -0.8958600
 H        1.8889000       1.9480600      -1.6964000
 H        4.5489000       1.1706900      -2.1427000
 H        4.5635900       1.4828600      -0.4062600
 H        5.1958300      -0.0774000      -1.0284300
 H        4.8131800      -4.4529500      -1.0644800
 H        5.1110500      -3.8903100       0.6120600
 H        6.2667500      -3.4558600      -0.6984200
 H        1.6177500       1.8556600       1.0661800

