%chk=dist_16_reactant_2.chk
%mem=2GB
%nprocshared=2
#P AM1 Freq NoSymm

dipolar_000160 AM1 SPE on distorted reactant_2 @ TS geom (n=7)

0 1
 O        0.5051400      -0.1266300      -2.3118300
 N       -0.2463700       0.7491000      -1.9126100
 C       -0.9701300       1.5486600      -1.4208000
 C       -1.8687200       2.6074200      -1.0238600
 H       -1.3323000       3.3479400      -0.4296400
 H       -2.1554500       2.9773300      -1.9829700
 H       -2.7320700       2.2388400      -0.4539700

