%chk=dist_11_reactant_1.chk
%mem=2GB
%nprocshared=2
#P AM1 Freq NoSymm

dipolar_000084 AM1 SPE on distorted reactant_1 @ TS geom (n=18)

0 1
 C       -3.0438700      -1.5885400       1.8425400
 N       -2.0332300      -0.5734300       1.6274100
 C       -1.9535400       0.0928600       0.4479900
 O       -2.7584900      -0.1365100      -0.4686200
 C       -0.8963100       1.1102700       0.3201200
 C       -0.5534200       1.9088000      -0.8520000
 C       -1.3807000       1.7681100      -2.1051600
 O        0.4113800       2.6847100      -0.8202600
 N        0.0487600       1.1475400       1.2485900
 C        1.0093900       1.2347100       1.9837700
 H       -2.9720700      -1.9436800       2.8789100
 H       -2.9132600      -2.4435400       1.1640300
 H       -4.0565700      -1.1814700       1.6820600
 H       -1.3421000      -0.4161100       2.3525300
 H       -1.3295300       0.7331300      -2.4935700
 H       -2.4325800       1.9679800      -1.8890600
 H       -0.9937100       2.4647800      -2.8578800
 H        1.7191800       1.4293400       2.6417500

