%chk=dist_172_reactant_2.chk
%mem=2GB
%nprocshared=2
#P AM1 Freq NoSymm

dipolar_002415 AM1 SPE on distorted reactant_2 @ TS geom (n=24)

0 1
 C        6.2199800      -0.7862000       1.1307000
 N        4.9147500      -0.9463300       0.5351800
 C        3.9673400       0.0199600       0.6235700
 O        4.1769400       1.0870100       1.2368800
 C        2.7020600      -0.2465300      -0.0358000
 C        2.1839200      -1.3757700      -0.5803900
 O        2.7709500      -2.5602500      -0.7339700
 C        2.0184700      -3.6186900      -1.3469300
 C        0.6776200      -1.0901600      -0.7858000
 O        0.7277000       0.3117300      -1.0624100
 C        1.4683000       0.6637700       0.1255100
 C        0.6188100      -0.0358300       1.2240100
 C        0.1573700      -1.1128500       0.6739300
 H        6.7256500       0.1067100       0.7304700
 H        6.8179000      -1.6689100       0.8907800
 H        6.1564300      -0.6783700       2.2212300
 H        4.6650000      -1.8136600       0.0661100
 H        2.6782100      -4.4884600      -1.3410200
 H        1.7603800      -3.3497000      -2.3833100
 H        1.1002400      -3.8428500      -0.7792500
 H        0.1541400      -1.6364700      -1.5954200
 H        1.6692600       1.7538800       0.1583100
 H        0.5540600       0.3421600       2.2279300
 H       -0.3812600      -1.9379300       1.0955200

