%chk=dist_199_reactant_2.chk
%mem=2GB
%nprocshared=2
#P AM1 Freq NoSymm

dipolar_002814 AM1 SPE on distorted reactant_2 @ TS geom (n=21)

0 1
 C        5.4804700       3.7312000      34.8042700
 O        6.0800800       5.0202900      34.6577200
 C        7.2764500       5.1991700      35.2302300
 O        7.8096400       4.4153500      35.9845600
 N        7.7264700       6.5010800      34.8684500
 O        8.9537100       6.7604300      35.3286400
 N        9.8853000       5.9077900      34.7986200
 C       11.1520100       6.4927700      35.0116300
 C       12.2555900       5.6321300      34.8639600
 C       13.5523700       6.1371400      34.9327000
 C       13.7649900       7.4962900      35.1843200
 C       12.6692000       8.3479400      35.3810000
 C       11.3672000       7.8596500      35.2931500
 H        5.4347800       3.4201800      35.8519200
 H        6.0596900       3.0074700      34.2167500
 H        4.4823800       3.8519600      34.3865000
 H       12.0640500       4.5796400      34.6933900
 H       14.3908900       5.4619700      34.7719600
 H       14.7847500       7.8890300      35.1990800
 H       12.8517600       9.4181700      35.5658200
 H       10.5298500       8.5477900      35.4558100

