%chk=dist_79_reactant_1.chk
%mem=2GB
%nprocshared=2
#P AM1 Freq NoSymm

dipolar_001108 AM1 SPE on distorted reactant_1 @ TS geom (n=15)

0 1
 C        4.1512300       1.5469500       0.7093400
 N        3.0656900       0.5909800       0.8647800
 C        2.4779600       0.0356500      -0.2020600
 O        2.8685000       0.1522900      -1.3660600
 C        1.1985100      -0.7498900       0.0580300
 C        0.9583500      -1.8172600      -0.9127400
 N        0.7246900      -2.6694100      -1.6680700
 O        1.0674200      -1.1568700       1.3544400
 N       -0.2170500      -1.7037000       1.4932600
 C       -0.4326100      -1.8941300       2.8067200
 N       -0.7453100      -2.0796200       3.9199600
 H        3.7707500       2.4799100       0.2225000
 H        4.9497200       1.1476400       0.0840100
 H        4.5478000       1.8181500       1.6932800
 H        2.6713800       0.4556100       1.7960200

