%chk=dist_32_reactant_2.chk
%mem=2GB
%nprocshared=2
#P AM1 Freq NoSymm

dipolar_000360 AM1 SPE on distorted reactant_2 @ TS geom (n=19)

0 1
 C       -0.0281100      -2.0260100      -0.8193900
 C        0.8366000      -2.8436200      -1.5767600
 N        1.5715300      -3.5588200      -2.1427000
 C        0.0460000      -2.2279600       0.5811700
 N        0.1870400      -2.5497800       1.6959800
 N       -0.6615600      -0.9576800      -1.4392800
 C       -0.4113400      -0.8380500      -2.8955500
 C       -1.4176500      -0.0073300      -0.9157900
 C       -1.9461600       0.0067600       0.4581200
 O       -2.3069400      -0.9994100       1.0514700
 O       -2.1255000       1.2488100       0.9116700
 C       -2.7528500       1.3832800       2.2007300
 H       -1.1476900      -0.1389000      -3.3096800
 H       -0.5262400      -1.8130200      -3.3774100
 H        0.6019400      -0.4574400      -3.0260300
 H       -1.5511500       0.8779800      -1.5038300
 H       -2.1683800       0.8669400       2.9760400
 H       -2.8014000       2.4586500       2.4177700
 H       -3.7754600       0.9613500       2.1769500

