%chk=dist_25_reactant_1.chk
%mem=2GB
%nprocshared=2
#P AM1 Freq NoSymm

dipolar_000271 AM1 SPE on distorted reactant_1 @ TS geom (n=17)

0 1
 C       -2.4493300       0.4214100      -2.2565400
 C       -2.2529500       1.0244100      -0.8855300
 O       -2.3602300       2.2278200      -0.7129600
 C       -1.8204800       0.1115300       0.2588700
 C       -2.3907100       0.5054600       1.6167700
 C       -3.0493700      -0.5337400       2.4991100
 O       -2.2901000       1.6594000       2.0060300
 N       -1.8378700      -1.2644900      -0.0530200
 N       -0.8581200      -1.9727600       0.6973000
 H       -2.7347700       1.2263700      -2.9585200
 H       -3.2108400      -0.3704600      -2.2861500
 H       -1.4958100      -0.0178300      -2.6134400
 H       -3.8377500      -0.0358700       3.0936300
 H       -2.2975200      -0.8937800       3.2451500
 H       -3.4618900      -1.4020200       1.9825000
 H       -1.7421700      -1.4503500      -1.0589100
 H       -1.2666500      -1.8615000       1.6560400

