%chk=dist_56_reactant_2.chk
%mem=2GB
%nprocshared=2
#P AM1 Freq NoSymm

dipolar_000648 AM1 SPE on distorted reactant_2 @ TS geom (n=15)

0 1
 C        0.9701200      -0.2633600       0.6124800
 C        2.2831800       0.2860100       0.2330800
 C        2.3934500       1.6158300      -0.2460300
 C        3.5805000       2.0640000      -0.8339500
 C        4.6807600       1.2094500      -0.9573200
 C        4.5889800      -0.1040400      -0.4822300
 C        3.4066900      -0.5678100       0.0963800
 C       -0.0176800      -0.4263000       1.4780600
 C       -0.1020200      -0.1932400       2.8991800
 N       -0.3541400      -0.1189800       4.0348700
 H        1.5491000       2.2928000      -0.1796100
 H        3.6626600       3.0986100      -1.2140500
 H        5.6195100       1.5660000      -1.4216400
 H        5.4558300      -0.7775500      -0.5825600
 H        3.3415400      -1.5942500       0.4366700

