%chk=dist_170_reactant_1.chk
%mem=2GB
%nprocshared=2
#P AM1 Freq NoSymm

dipolar_002390 AM1 SPE on distorted reactant_1 @ TS geom (n=26)

0 1
 C        3.6875700      -0.1568700       2.8874800
 N        3.2399000      -0.3096200       1.5236200
 C        2.4002100       0.5758700       0.9656700
 O        1.9770000       1.5906700       1.5328000
 C        1.9889600       0.2664500      -0.4328500
 C        2.5643100      -0.7902900      -1.2992100
 O        3.1905400      -1.7497800      -0.8185700
 N        2.4155100      -0.6116400      -2.6257300
 C        2.8654700      -1.6016200      -3.5784300
 N        0.9964200       0.9574500      -0.8640100
 C       -0.0322300       1.5259200      -1.1607400
 C       -0.7778600       2.6174700      -1.6732400
 O       -0.8720700       3.6776900      -1.0755000
 O       -1.3966600       2.2700000      -2.7957700
 C       -2.1509000       3.3018100      -3.4466800
 H        4.2281200       0.7994500       3.0033600
 H        2.8503300      -0.1580300       3.5960500
 H        4.3680300      -0.9778300       3.1262400
 H        3.4415100      -1.1553700       0.9775000
 H        1.8061800       0.1408300      -2.9460800
 H        2.2303700      -2.4922300      -3.5653200
 H        2.8430600      -1.1480200      -4.5748000
 H        3.8972500      -1.8963000      -3.3407500
 H       -2.9492500       3.6461300      -2.7886200
 H       -2.5396300       2.8442900      -4.3520000
 H       -1.4642600       4.1286100      -3.6838100

