%chk=dist_159_reactant_2.chk
%mem=2GB
%nprocshared=2
#P AM1 Freq NoSymm

dipolar_002192 AM1 SPE on distorted reactant_2 @ TS geom (n=28)

0 1
 C        0.2494800      -0.1167100      -0.8398300
 C        0.6358600       0.4159000       0.2641300
 C        1.6896100       1.4435900       0.7572300
 O        1.7045500       1.2068700       2.1538700
 C        2.5164200       2.0091400       2.9928000
 O        1.3255100       2.7620100       0.4553500
 C        0.0682600       3.2268300       0.9346000
 C        3.0886200       1.2432000       0.1498500
 C        3.3163700       1.6305500      -1.3168900
 C        2.9163900       0.6359900      -2.4176900
 C        1.4762500       0.7156200      -2.9403800
 C        0.4562700      -0.2269600      -2.3154100
 F       -0.7487800      -0.0094600      -2.9513200
 Cl       0.9107500      -1.9590400      -2.6969800
 H        2.1514700       1.8058100       4.0213100
 H        3.5726400       1.7159000       2.9414900
 H        2.4076800       3.0733200       2.7790800
 H       -0.7223500       2.5461700       0.6051600
 H       -0.0982300       4.2218400       0.4922500
 H        0.0443200       3.3171700       2.0318700
 H        3.7900500       1.9094600       0.7448500
 H        3.4114600       0.2277900       0.3425200
 H        2.8459400       2.6148900      -1.5228700
 H        4.4012800       1.8085100      -1.4366200
 H        3.1417100      -0.3942800      -2.0969700
 H        3.5884200       0.8219800      -3.2768200
 H        1.0812500       1.7265900      -2.8676200
 H        1.4832800       0.4730500      -4.0558400

