%chk=dist_60_reactant_2.chk
%mem=2GB
%nprocshared=2
#P AM1 Freq NoSymm

dipolar_000732 AM1 SPE on distorted reactant_2 @ TS geom (n=21)

0 1
 C        1.6558900      -0.2248300       0.5346700
 C        2.4935900      -0.9534300      -0.5241900
 C        3.4900700       0.0780200      -1.1495000
 C        2.5645300       0.9964400      -2.0000600
 C        1.1470000       0.3967500      -1.7436900
 C        1.4911900      -1.1031600      -1.6842500
 C        0.7411600       0.6844900      -0.2722300
 O        0.7167400       2.0542900      -0.0226500
 C        1.1685700       2.5728800       1.2273200
 H        2.2411600       0.2156500       1.3784300
 H        2.9859100      -1.8554100      -0.1592400
 H        4.2349900      -0.4859700      -1.8321300
 H        4.1091900       0.6168200      -0.4439900
 H        2.8235100       0.9168200      -3.1167600
 H        2.6731900       2.0514500      -1.7553200
 H        0.3983900       0.7377700      -2.4615800
 H        0.6589000      -1.7320300      -1.4257800
 H        1.9575700      -1.4609600      -2.6181500
 H        2.2654400       2.5896400       1.2448500
 H        0.7905200       3.6142400       1.2857400
 H        0.7805500       2.0118900       2.0799200

