%chk=dist_52_reactant_2.chk
%mem=2GB
%nprocshared=2
#P AM1 Freq NoSymm

dipolar_000568 AM1 SPE on distorted reactant_2 @ TS geom (n=21)

0 1
 N       -0.3950300       1.9555700       1.3116200
 N        0.4559100       1.6652600       0.4318800
 C        0.5128600       2.6681900      -0.6584100
 C        1.2919200       0.5813600       0.4310700
 C        1.3221400      -0.1653400       1.6310400
 N        1.4239300      -0.7781700       2.6215400
 C        2.3292300       0.3015800      -0.5746500
 C        2.1346700       0.4288000      -1.9625500
 C        3.1702600       0.1399800      -2.8524600
 C        4.4096500      -0.3014600      -2.3825800
 C        4.6073900      -0.4538300      -1.0065300
 C        3.5813300      -0.1546400      -0.1141800
 H       -0.4956500       1.1116900       1.9825900
 H       -0.0852500       2.3686500      -1.5410600
 H        0.0531300       3.5699800      -0.2239900
 H        1.5338800       2.8299500      -0.9261800
 H        1.1665900       0.7428200      -2.3602800
 H        2.9918100       0.2479200      -3.9205800
 H        5.2088000      -0.5309000      -3.0758900
 H        5.5640200      -0.7957800      -0.6161000
 H        3.7453600      -0.2679700       0.9656900

