%chk=dist_108_reactant_2.chk
%mem=2GB
%nprocshared=2
#P AM1 Freq NoSymm

dipolar_001415 AM1 SPE on distorted reactant_2 @ TS geom (n=20)

0 1
 C       -1.2940900       0.0612800       0.3967100
 C       -2.0955600      -0.6827000      -0.6101900
 F       -2.8083100       0.1792300      -1.3971700
 F       -3.0144400      -1.5020400      -0.0484600
 F       -1.3679800      -1.4325000      -1.4577700
 C       -1.9407600       0.6647500       1.6477100
 C       -2.4866300       2.0440700       1.1440700
 C       -1.1859900       2.8436400       0.8351900
 C       -0.0550400       1.8360300       1.2281200
 C       -0.7092300       1.1436800       2.4379600
 C       -0.2055900       0.7752600       0.1539800
 Br       0.5664000       1.0655200      -1.5547700
 H       -2.6728700       0.0343500       2.1770100
 H       -3.0469700       2.5136900       1.9135800
 H       -3.1185100       1.9011100       0.2465600
 H       -1.0637800       3.0710500      -0.2525400
 H       -1.0835200       3.7187500       1.4016100
 H        0.9557400       2.2446300       1.3885500
 H       -0.9965500       1.8684600       3.2207400
 H       -0.1246900       0.3439500       2.9189400

