%chk=dist_22_reactant_1.chk
%mem=2GB
%nprocshared=2
#P AM1 Freq NoSymm

dipolar_000245 AM1 SPE on distorted reactant_1 @ TS geom (n=9)

0 1
 C       -3.9305900      -0.1542300       1.3574800
 C       -3.3521200      -0.8564400       0.1380400
 O       -4.1059500      -1.2540700      -0.7717000
 C       -1.9398500      -1.0099300       0.1090600
 C       -0.6478200      -1.0373000       0.0882700
 Cl       0.4762000      -2.2729700       0.5792300
 H       -4.1243700      -0.8610900       2.1458900
 H       -4.8941100       0.3464900       1.0771300
 H       -3.2366400       0.6271600       1.7354800

