%chk=dist_199_reactant_1.chk
%mem=2GB
%nprocshared=2
#P AM1 Freq NoSymm

dipolar_002814 AM1 SPE on distorted reactant_1 @ TS geom (n=44)

0 1
 C        9.0875100       5.9209900      32.8670700
 C        7.9723900       6.4995500      33.0341700
 C        6.7903500       7.0754500      32.2510200
 O        7.3593600       8.0381000      31.3821000
 C        6.4219700       8.6882900      30.4930100
 O        5.8299700       7.6675500      33.0905400
 C        6.2390200       8.8644200      33.7447700
 C        6.0610700       5.9604700      31.4811400
 C        6.8046900       5.3226700      30.3015700
 C        7.8677800       4.2452100      30.5923500
 C        9.3318600       4.7123000      30.6500100
 C        9.9855000       5.0651400      32.0406300
 C       10.1672700       3.7340300      32.8243800
 O       11.2108400       3.1378000      32.9674500
 O        9.0102000       3.2829100      33.2993200
 C        9.0510000       2.0598300      34.0528100
 C       11.3281000       5.7458900      31.7506300
 C       12.4013500       5.0375100      31.1863700
 C       13.6115700       5.6813000      30.9156500
 C       13.7650900       7.0440600      31.1875900
 C       12.6876900       7.7634200      31.7100500
 C       11.4791100       7.1189200      31.9803900
 H        5.4423900       8.9879700      30.9910700
 H        6.8499100       9.6332900      30.0934900
 H        6.1155100       8.0782300      29.6003500
 H        5.5988100       8.9773900      34.6195500
 H        6.1439500       9.7388500      33.0915800
 H        7.2936700       8.7908900      34.0870300
 H        5.1182600       6.4121100      31.0721500
 H        5.7634800       5.2127700      32.1915900
 H        7.2684700       6.1151800      29.6602800
 H        6.0396200       4.8645700      29.6528100
 H        7.5939700       3.6834200      31.4889500
 H        7.8004600       3.5060200      29.7587800
 H        9.9768000       3.8749300      30.2036600
 H        9.4831700       5.5533700      29.9837300
 H        9.4755500       1.2450800      33.4425000
 H        9.6576000       2.1939900      34.9582300
 H        8.0150600       1.8336900      34.3200500
 H       12.3121500       3.9699800      30.9563100
 H       14.4479600       5.1133800      30.4875400
 H       14.7135400       7.5458000      30.9894600
 H       12.7807000       8.8222000      31.9308800
 H       10.6431700       7.6729000      32.3942400

