%chk=dist_125_reactant_1.chk
%mem=2GB
%nprocshared=2
#P AM1 Freq NoSymm

dipolar_001576 AM1 SPE on distorted reactant_1 @ TS geom (n=20)

0 1
 C       -0.6940500       0.7369400      -0.6460500
 C       -0.5170100       0.8688200      -2.1505800
 C       -1.6692200       1.7415400       0.0264800
 C       -1.1157200       3.1922600      -0.0811200
 C        0.1008500       3.1717700       0.8875400
 C        0.1131400       1.7019900       1.4106100
 C       -1.4081300       1.4601700       1.5178300
 C        0.4729600       0.6956700       0.2825900
 Br       2.2525000       1.1410800      -0.4744200
 H       -0.2724500       1.8919400      -2.5420400
 H        0.2730100       0.2002200      -2.5113000
 H       -1.4696700       0.5762900      -2.6421100
 H       -2.6978100       1.6452600      -0.3374300
 H       -0.8668600       3.5196300      -1.0882200
 H       -1.9200300       3.9267800       0.2808900
 H        1.0196900       3.5141100       0.4216100
 H       -0.0815100       3.8930000       1.7640000
 H        0.7174600       1.5845300       2.3080600
 H       -1.9057100       2.1670100       2.1827500
 H       -1.6472200       0.4452900       1.7996100

