%chk=dist_71_reactant_1.chk
%mem=2GB
%nprocshared=2
#P AM1 Freq NoSymm

dipolar_000915 AM1 SPE on distorted reactant_1 @ TS geom (n=14)

0 1
 C        0.2644400      -2.0548300      -0.5581200
 C        1.4415300      -1.5466300       0.0921900
 C        1.6945600      -1.9013800       1.4250600
 C        2.8543800      -1.4535300       2.0582900
 C        3.7600900      -0.6422500       1.3678800
 C        3.5130600      -0.2960000       0.0357700
 C        2.3625800      -0.7531100      -0.6079500
 C       -0.6575700      -2.6005300      -1.0936300
 H        0.9752800      -2.5261400       1.9639000
 H        3.0404300      -1.7362100       3.0919400
 H        4.6618700      -0.2828500       1.8670600
 H        4.2173900       0.3282600      -0.5128400
 H        2.1758200      -0.4889500      -1.6532900
 H       -1.4344300      -3.1608900      -1.5550500

