%chk=dist_124_reactant_2.chk
%mem=2GB
%nprocshared=2
#P AM1 Freq NoSymm

dipolar_001558 AM1 SPE on distorted reactant_2 @ TS geom (n=16)

0 1
 C        3.8025600       2.7597800      -0.8320600
 N        2.7108700       2.5897000       0.1089500
 C        2.4487600       1.3988600       0.6671200
 O        3.1801200       0.4110600       0.5577700
 C        1.1939200       1.3813400       1.4852400
 N        0.7419400       0.3096400       2.1045100
 C        0.6805600      -0.9365900       1.3775300
 C        0.4603600      -2.0671300       2.2914400
 N        0.2451100      -2.9892500       2.9653200
 H        3.6650600       3.7109400      -1.3685800
 H        3.7939900       1.9339200      -1.5553000
 H        4.7861900       2.7768700      -0.3361100
 H        2.0802400       3.3777300       0.2684300
 H        0.8294400       2.3383900       1.8936900
 H        0.0084200       0.4246500       2.7729000
 H        1.7044100      -1.1042700       0.8771200

