%chk=dist_172_reactant_1.chk
%mem=2GB
%nprocshared=2
#P AM1 Freq NoSymm

dipolar_002415 AM1 SPE on distorted reactant_1 @ TS geom (n=34)

0 1
 C       -2.3841300      -0.2758800      -0.0047000
 C       -2.7683300      -0.8882700       1.2987700
 O       -3.2749100      -2.0263000       1.3343200
 N       -2.6463500      -0.1295700       2.4050100
 C       -3.1266700      -0.5924100       3.6863700
 C       -2.6175900      -1.0066100      -1.2559800
 C       -2.3751800      -2.3934800      -1.3959300
 C       -2.6578900      -3.0380600      -2.6014200
 C       -3.1799400      -2.3232500      -3.6862900
 C       -3.4024300      -0.9493300      -3.5621000
 C       -3.1244600      -0.3005800      -2.3609000
 N       -1.7897600       0.9179700      -0.0893500
 N       -1.4093500       1.6724400       0.8999400
 C       -0.8117200       2.8843500       0.6011700
 C       -1.0072100       3.5924800      -0.6007200
 C       -0.4244700       4.8463000      -0.7795000
 C        0.3682300       5.4181600       0.2212700
 C        0.5831100       4.7122800       1.4133600
 C        0.0021500       3.4613500       1.6072500
 H       -2.1188300       0.7397400       2.2940200
 H       -4.2026400      -0.8485000       3.6401800
 H       -2.5861500      -1.4800300       4.0297300
 H       -2.9969700       0.2153400       4.4192900
 H       -1.9357700      -2.9906000      -0.5811100
 H       -2.4822800      -4.1214200      -2.7116900
 H       -3.4275400      -2.8201200      -4.6221800
 H       -3.8225200      -0.3665400      -4.3638100
 H       -3.3116100       0.7576900      -2.2297000
 H       -1.5532400       1.2164200      -1.0509500
 H       -1.6400600       3.1600000      -1.3625900
 H       -0.6345200       5.3771800      -1.6958200
 H        0.7932900       6.4103500       0.0725300
 H        1.2076100       5.1634000       2.2012600
 H        0.2078200       2.9105500       2.5413500

