%chk=dist_116_reactant_2.chk
%mem=2GB
%nprocshared=2
#P AM1 Freq NoSymm

dipolar_001512 AM1 SPE on distorted reactant_2 @ TS geom (n=22)

0 1
 C       -1.9495300       0.0352300       0.2692400
 C       -2.8892300       0.4317100      -0.7066300
 N       -3.6498900       0.7394100      -1.5380500
 C       -1.7026500      -1.3955400       0.5059400
 O       -0.9899200      -1.8791500       1.3716400
 O       -2.4140300      -2.1420000      -0.3469900
 C       -2.2532300      -3.5662300      -0.2365000
 N       -1.2831600       0.9895700       0.9829300
 C       -1.8174300       2.3696500       0.9996600
 N       -0.1939500       0.6719400       1.5502400
 C        0.4204000       1.3245500       2.6044800
 C       -0.4159200       1.4510300       3.8503400
 O        1.6026600       1.6061300       2.5513300
 H       -2.8267600      -4.0120100      -1.0524100
 H       -2.6472300      -3.9222600       0.7373700
 H       -1.1910700      -3.8569100      -0.3118100
 H       -1.0593600       3.0326400       1.3937400
 H       -2.0276500       2.6707100      -0.0560400
 H       -2.7371000       2.3903200       1.5716800
 H       -1.0580000       0.5300300       3.8742500
 H        0.2435000       1.5047700       4.6581800
 H       -1.0397500       2.3030900       3.7017700

