%chk=dist_73_reactant_2.chk
%mem=2GB
%nprocshared=2
#P AM1 Freq NoSymm

dipolar_000975 AM1 SPE on distorted reactant_2 @ TS geom (n=12)

0 1
 C       -1.1659000      -0.5902800      -0.6953900
 C       -2.6311900      -1.0107400      -0.7309700
 Cl      -0.6814600      -0.0088500      -2.2917800
 C       -0.1239000      -1.4425900      -0.0099200
 C       -0.7294700      -2.4115200       1.0079000
 Cl       0.8593700      -2.4282400      -1.1551000
 H       -2.8715000      -1.8293100      -1.4033800
 H       -3.2472300      -0.1192400      -1.0652600
 H       -2.9873800      -1.2638700       0.2797200
 H        0.0803600      -2.9300600       1.5228600
 H       -1.3397400      -1.8654200       1.7149100
 H       -1.3950500      -3.2355100       0.5731500

