%chk=dist_115_reactant_2.chk
%mem=2GB
%nprocshared=2
#P AM1 Freq NoSymm

dipolar_001504 AM1 SPE on distorted reactant_2 @ TS geom (n=21)

0 1
 C       -2.8183800      -0.2393200       0.0663100
 C       -3.2802800       0.9646800       0.6947300
 O       -3.6595100       1.0878700       1.8585700
 O       -3.2621800       2.0096900      -0.1675700
 C       -3.7815200       3.2506300       0.3169400
 C       -2.4220700      -0.4091500      -1.2686100
 O       -2.4978800       0.2194300      -2.3166100
 O       -1.8395200      -1.7306500      -1.2869500
 C       -1.9214600      -2.2678400      -0.0860100
 C       -1.3425100      -3.6186000       0.1520000
 N       -2.4624000      -1.4184000       0.7578500
 C       -2.5475700      -1.6049200       2.2054900
 H       -3.7113600       3.9542900      -0.5245900
 H       -4.8333200       3.1413100       0.6245100
 H       -3.1913500       3.6207300       1.1659000
 H       -0.5218500      -3.8450300      -0.5517000
 H       -0.9847600      -3.7880100       1.1718400
 H       -2.1947800      -4.2476800      -0.0685300
 H       -3.5193900      -1.2751100       2.5715800
 H       -2.3939500      -2.6571800       2.4421400
 H       -1.7599500      -0.9981200       2.7024500

