%chk=dist_200_reactant_1.chk
%mem=2GB
%nprocshared=2
#P AM1 Freq NoSymm

dipolar_002817 AM1 SPE on distorted reactant_1 @ TS geom (n=21)

0 1
 C        3.2585400     -25.3563000     -10.3857400
 N        3.2929600     -24.5904100      -9.1636000
 C        2.1549700     -24.2693800      -8.5156000
 O        1.0341300     -24.5399700      -8.9405400
 N        2.3137800     -23.7783600      -7.2125500
 N        3.4445900     -22.5863500      -5.6796600
 C        3.2521100     -23.6182400      -4.7331900
 C        3.5734800     -25.0431000      -5.1223200
 O        3.0226400     -23.3222900      -3.5733700
 N        3.0850600     -22.8160400      -6.8998300
 C        3.5099900     -21.7444600      -7.8354500
 H        2.6428200     -24.8449300     -11.1139200
 H        4.2816000     -25.4311200     -10.7091500
 H        2.8420000     -26.3548700     -10.1850200
 H        4.1418900     -24.4242400      -8.6388700
 H        4.1423200     -25.0610700      -6.0766900
 H        4.1779400     -25.4557800      -4.3191400
 H        2.6598300     -25.5906400      -5.2420800
 H        4.5080900     -21.4014100      -7.5444400
 H        2.7784100     -20.9029700      -7.6369700
 H        3.4422400     -22.0547900      -8.8448400

