%chk=dist_135_reactant_2.chk
%mem=2GB
%nprocshared=2
#P AM1 Freq NoSymm

dipolar_001779 AM1 SPE on distorted reactant_2 @ TS geom (n=37)

0 1
 C        1.1066400       2.1441600      -2.9581500
 N        1.0675700       1.2586500      -1.8182300
 C        1.0866700       1.7055800      -0.5508900
 O        1.1966500       2.9148400      -0.2940500
 C        0.9438700       0.6164600       0.5150000
 C        2.0362900       0.4947400       1.4342800
 O        1.9667200      -0.0211500       2.5577600
 O        3.2308000       0.9332700       0.9349300
 C        4.3943900       0.5847900       1.6749200
 N       -0.3423900       0.6205000       1.1964700
 C       -1.2999800      -0.2040400       0.4069800
 C       -2.3902700      -0.6957000       1.4340400
 O       -3.5039100      -1.0392800       1.1104600
 O       -1.9102600      -0.8378700       2.6646800
 C       -2.7205100      -1.5671500       3.6078900
 C       -2.0369400       0.7654000      -0.5940900
 C       -2.8422500       0.1950800      -1.5866800
 C       -3.4491600       0.9774200      -2.5691600
 C       -3.2634100       2.3629800      -2.5800100
 C       -2.4945000       2.9541300      -1.5740300
 C       -1.9023400       2.1642700      -0.5746300
 H        0.2342600       2.8114900      -2.9703200
 H        1.1017700       1.5338200      -3.8723900
 H        2.0154100       2.7608900      -2.9462400
 H        0.9939600       0.2501600      -1.9510800
 H        4.4844000      -0.5087600       1.7669500
 H        4.3737800       1.0307800       2.6788400
 H        5.2411700       0.9822100       1.1051200
 H       -0.1963300       0.1721800       2.1134800
 H       -3.6731400      -1.0552300       3.7737700
 H       -2.1417600      -1.6190700       4.5384700
 H       -2.9083900      -2.5859800       3.2242200
 H       -2.9920400      -0.8785200      -1.5777200
 H       -4.0539300       0.4889800      -3.3293000
 H       -3.7271900       2.9655900      -3.3696200
 H       -2.3539500       4.0503200      -1.5827000
 H       -1.3120600       2.6730300       0.1907000

