%chk=dist_173_reactant_1.chk
%mem=2GB
%nprocshared=2
#P AM1 Freq NoSymm

dipolar_002456 AM1 SPE on distorted reactant_1 @ TS geom (n=28)

0 1
 C       -0.0409200       4.8911700       0.7554600
 N       -0.4228700       3.4971400       0.5498200
 C        0.4272200       2.6282400      -0.0559500
 O        1.5677800       2.9691700      -0.4137600
 N       -0.0302800       1.3251900      -0.3135800
 N       -1.1430000       0.8882400       0.3560700
 C       -1.1320200       0.8817900       1.8341400
 C       -1.7023800      -0.1139700      -0.4221700
 C       -2.1975200       0.3123600      -1.8191700
 C       -2.1998400       1.7688200      -2.2154200
 O       -2.6631400      -0.5335200      -2.5630500
 C       -2.6906800      -1.0904800       0.2024900
 O       -2.9248300      -2.1740300      -0.2998300
 O       -3.2823000      -0.6505700       1.3002300
 C       -4.1240100      -1.5970600       2.0041300
 H        0.1045100       5.4574200      -0.1794800
 H       -0.8138400       5.4479400       1.3548400
 H        0.9106400       4.9856600       1.3388800
 H       -1.4170100       3.3120100       0.7257000
 H       -0.2714400       1.4707700       2.1573000
 H       -1.0868900      -0.1136800       2.2134100
 H       -2.0611500       1.3849900       2.1982000
 H       -2.2995400       2.4812800      -1.4085500
 H       -1.2652100       1.9913200      -2.7735900
 H       -3.0370400       1.9125600      -2.9484400
 H       -3.5234300      -2.4950600       2.2960300
 H       -4.4948800      -1.1105300       2.9220000
 H       -4.9669000      -1.9282400       1.3856900

