%chk=dist_32_reactant_1.chk
%mem=2GB
%nprocshared=2
#P AM1 Freq NoSymm

dipolar_000360 AM1 SPE on distorted reactant_1 @ TS geom (n=14)

0 1
 C       -0.4960800       4.2357700      -0.3802500
 O       -0.0923300       2.8896500      -0.6634000
 C        0.4552900       2.2290100       0.3616500
 O        0.6200300       2.7164000       1.4729600
 C        0.9527000       0.9201100       0.0673900
 C        1.7708100       0.0605900       0.0121600
 O        2.7136900      -0.8409500       0.0853300
 C        3.4852500      -0.5769300       1.3025300
 H        0.3729200       4.8338300      -0.0415100
 H       -1.2610800       4.2381200       0.4065000
 H       -0.8892800       4.6345600      -1.3102600
 H        4.3575200      -1.1544000       1.2293700
 H        2.8491400      -0.8245900       2.1687900
 H        3.7147700       0.5320800       1.3425200

