%chk=dist_158_reactant_1.chk
%mem=2GB
%nprocshared=2
#P AM1 Freq NoSymm

dipolar_002185 AM1 SPE on distorted reactant_1 @ TS geom (n=26)

0 1
 C        3.6794700       3.0878900       1.3438700
 O        3.2454400       1.8020300       0.8461300
 C        2.3280500       1.8155700      -0.0846600
 O        1.8733200       2.8057700      -0.6081400
 C        1.7918600       0.4065600      -0.4590600
 C        2.8917100      -0.6798200      -0.4863400
 O        3.2268400      -1.2370300      -1.5020700
 O        3.4386100      -0.8592800       0.6950600
 C        4.4488300      -1.8779500       0.8000100
 N        0.9510100       0.4859000      -1.5130700
 C       -0.2235300      -0.4762200      -1.4420800
 C       -1.0699800      -0.0223300      -2.6727600
 C        0.3474000      -1.8973600      -1.7999900
 H        2.8147200       3.6203100       1.7709600
 H        4.4187000       2.8722400       2.1159800
 H        4.1194300       3.6832500       0.5324100
 H        5.3030700      -1.6432200       0.1503800
 H        4.0210100      -2.8500800       0.5167200
 H        4.7496900      -1.8821200       1.8497700
 H        0.6601000       1.4473500      -1.7041300
 H       -0.5853000      -0.2093400      -3.7054900
 H       -1.2526100       1.0710800      -2.6544400
 H       -2.0044400      -0.5376400      -2.6856200
 H        0.8467200      -2.3327500      -0.9286700
 H       -0.4708500      -2.5463800      -2.0858900
 H        1.0978400      -1.9281400      -2.6402600

