%chk=dist_58_reactant_1.chk
%mem=2GB
%nprocshared=2
#P AM1 Freq NoSymm

dipolar_000700 AM1 SPE on distorted reactant_1 @ TS geom (n=21)

0 1
 C        0.5676100      -1.3181700       0.4466400
 C        1.6132600      -2.4007100       0.0060500
 C        0.6737200      -1.1343900       2.0360700
 C        2.1116300      -0.8272200       2.4849000
 C        2.3457500       0.4341000       2.0937900
 C        1.0458200       0.8746900       1.4129900
 O        0.0649300       0.1594400       2.1834600
 C        0.9635800       0.1178400       0.0706700
 C        1.7333400       0.5432100      -1.0922800
 C        2.3916200       1.9050900      -1.0334300
 O        1.8434900      -0.1498100      -2.1157400
 H        2.6067800      -2.3757700       0.5156000
 H        1.8209600      -2.3947400      -1.0748000
 H        1.1871100      -3.4099500       0.2517100
 H        0.1808100      -1.9194300       2.5915200
 H        2.8091300      -1.4887400       3.0520000
 H        3.2511100       1.0726200       2.2259800
 H        0.8249400       1.9390600       1.3859500
 H        3.2875100       1.8555100      -0.3962000
 H        2.6905900       2.2160300      -2.0460100
 H        1.7218700       2.6567800      -0.5945300

