%chk=dist_107_reactant_2.chk
%mem=2GB
%nprocshared=2
#P AM1 Freq NoSymm

dipolar_001402 AM1 SPE on distorted reactant_2 @ TS geom (n=20)

0 1
 C       -0.5191600      -0.0743200      -1.2697900
 C       -0.5188600       0.4757500      -0.2111100
 C       -0.6245200       1.5147900       0.7836800
 Br      -1.9201300       0.9476200       2.2043100
 C       -1.1878000       2.7058700      -0.0138100
 C       -0.2570500       3.2890800      -1.0975500
 C        0.2892000       2.4308500      -2.2643400
 C       -0.7001700       1.5235300      -3.0378200
 C       -0.5050200       0.0404400      -2.7276700
 F       -1.4953600      -0.7262100      -3.2879300
 F        0.6702500      -0.4107600      -3.2859600
 H        0.3087000       1.7574300       1.3191400
 H       -2.1233400       2.3285800      -0.4996700
 H       -1.4553200       3.4656000       0.6793800
 H        0.6096500       3.7405100      -0.5849800
 H       -0.8276500       4.1212500      -1.5273900
 H        1.1539800       1.8334700      -1.9118000
 H        0.7150200       3.1349600      -2.9897400
 H       -0.6150500       1.6111300      -4.0879500
 H       -1.7440400       1.7348400      -2.7260200

