%chk=dist_14_reactant_1.chk
%mem=2GB
%nprocshared=2
#P AM1 Freq NoSymm

dipolar_000145 AM1 SPE on distorted reactant_1 @ TS geom (n=17)

0 1
 C        4.1741400       0.4233900       0.6686100
 N        3.0890300       0.0914400      -0.2339500
 C        2.1704100      -0.8257500       0.1017800
 O        2.3254100      -1.6874000       0.9655900
 N        0.9497700      -0.6773000      -0.6529900
 N        0.1657400      -1.7977700      -0.4319200
 C       -1.1708400      -1.3678500      -0.7682700
 C       -1.3633700      -1.1485800      -2.2773400
 H        4.9278100       1.0017900       0.1331000
 H        3.8044400       1.0198300       1.5245200
 H        4.6333300      -0.4915300       1.0623600
 H        2.7955400       0.7774800      -0.9136000
 H        0.2634900      -2.1641100       0.5208200
 H       -1.8350900      -2.2389500      -0.4167300
 H       -1.1451200      -2.0189000      -2.9301500
 H       -0.7238800      -0.3169100      -2.5993100
 H       -2.4085600      -0.8735800      -2.4144900

