%chk=dist_95_reactant_2.chk
%mem=2GB
%nprocshared=2
#P AM1 Freq NoSymm

dipolar_001277 AM1 SPE on distorted reactant_2 @ TS geom (n=25)

0 1
 C        5.0700100      -0.8384600      -0.2679400
 N        3.7408900      -0.3370600       0.0663700
 C        2.7428700      -0.3783500      -0.8218100
 O        2.8840300      -0.7258200      -1.9951600
 C        1.2763300      -0.1459700      -0.2908100
 O        1.3887700       0.4776300       1.0331000
 C        0.2496700       1.2012300       1.2229800
 O       -0.1314100       1.5537400       2.3117000
 C       -0.2683000       1.4570700      -0.1424600
 C       -1.4435100       2.3133400      -0.4755300
 O       -1.7644500       2.6133200      -1.6058300
 O       -2.1229000       2.6528000       0.6113500
 C       -3.3459000       3.3834600       0.3975800
 N        0.6306700       1.0030600      -1.0200400
 C        0.6230800       1.0752000      -2.4715600
 H        5.5707000      -0.2151200      -1.0205300
 H        5.6936900      -0.8674500       0.6400000
 H        5.0108700      -1.8720700      -0.6745200
 H        3.5731600      -0.0089100       1.0088300
 H       -3.1381200       4.3435200      -0.0970000
 H       -3.7746400       3.5495600       1.3909000
 H       -4.0367900       2.7929800      -0.2237000
 H        0.2954700       0.1186000      -2.8871600
 H        1.6348000       1.3049000      -2.8312300
 H       -0.0725000       1.8650700      -2.7680200

