%chk=dist_113_reactant_1.chk
%mem=2GB
%nprocshared=2
#P AM1 Freq NoSymm

dipolar_001462 AM1 SPE on distorted reactant_1 @ TS geom (n=24)

0 1
 C        0.7552500       3.6898100      -2.1370800
 N        1.1683400       2.6190800      -1.2434300
 C        0.9845600       1.3314200      -1.5819800
 O        0.6385600       0.9868100      -2.7172400
 C        1.2129300       0.3039100      -0.4861800
 C        1.9104800      -0.9524700      -0.7534700
 C        2.2819900      -1.3578800      -2.0583700
 C        2.8808800      -2.5978300      -2.2663400
 C        3.1299000      -3.4579100      -1.1893400
 C        2.7848700      -3.0637200       0.1069200
 C        2.1809500      -1.8277600       0.3259100
 N        1.2719800       0.8023600       0.7843100
 C        0.3373700       0.8967500       1.6558000
 C        0.6201900       1.5559100       2.9095800
 N        0.7520900       2.0611600       3.9476800
 H        1.2464100       3.6212700      -3.1166100
 H       -0.3458500       3.6496100      -2.3123600
 H        0.9910700       4.6617700      -1.6851600
 H        1.4539700       2.8771500      -0.3064900
 H        2.1212800      -0.7017100      -2.9045800
 H        3.1543200      -2.9155700      -3.2834800
 H        3.5808600      -4.4514000      -1.3634600
 H        2.9745600      -3.7360100       0.9507200
 H        1.9429100      -1.5284100       1.3383000

