%chk=dist_64_reactant_2.chk
%mem=2GB
%nprocshared=2
#P AM1 Freq NoSymm

dipolar_000783 AM1 SPE on distorted reactant_2 @ TS geom (n=11)

0 1
 C        4.5240800      -1.6768900       0.0053900
 N        3.1674900      -1.4459500      -0.4471800
 C        2.8007400      -0.2576300      -0.9690400
 O        3.5999200       0.6543600      -1.2243500
 C        1.4072300      -0.1460800      -1.3783400
 C        0.3419800      -0.0265400      -1.8685900
 F       -0.7963500       0.0598600      -2.5275300
 H        4.6774700      -2.7513600       0.1513400
 H        5.2420700      -1.3189500      -0.7533400
 H        4.7272300      -1.1514100       0.9473700
 H        2.4356700      -2.0653300      -0.1171600

