%chk=dist_85_reactant_2.chk
%mem=2GB
%nprocshared=2
#P AM1 Freq NoSymm

dipolar_001177 AM1 SPE on distorted reactant_2 @ TS geom (n=17)

0 1
 C       -2.6261200      -1.7280700       0.7692400
 C       -1.9303100      -2.5933300       1.7763500
 N       -2.3773700      -1.7893900      -0.5664800
 C       -1.2992700      -2.1146300      -1.2938500
 C       -0.3383400      -3.2085100      -0.9298200
 C       -1.3996100      -1.8082000      -2.7622800
 H       -3.6839500      -1.5724600       0.9680200
 H       -1.9478400      -3.7707000       1.5732800
 H       -2.3489400      -2.5019300       2.7534300
 H       -0.8464300      -2.3942200       1.8120800
 H       -3.0609300      -1.2856100      -1.0799600
 H       -0.6688000      -4.2124500      -1.4076200
 H       -0.2031200      -3.4002200       0.1053300
 H        0.6418500      -3.0222200      -1.4044500
 H       -0.4551100      -1.5519100      -3.2006100
 H       -1.7902300      -2.7013900      -3.3697500
 H       -2.1260200      -0.9949100      -2.9591200

