%chk=dist_128_reactant_2.chk
%mem=2GB
%nprocshared=2
#P AM1 Freq NoSymm

dipolar_001681 AM1 SPE on distorted reactant_2 @ TS geom (n=24)

0 1
 C        0.3722400      -0.5289300      -2.0046700
 C       -0.3719900      -1.4762200      -1.2613200
 N       -0.9466000      -2.3197300      -0.6901300
 C        1.3227800      -1.0036500      -3.0162200
 C        1.8882900      -0.1285200      -3.9677300
 C        2.8312700      -0.5931000      -4.8866200
 C        3.2120900      -1.9384700      -4.8955600
 C        2.6394700      -2.8199300      -3.9708400
 C        1.7069500      -2.3619700      -3.0424200
 N        0.3023800       0.7896600      -1.7227300
 C       -0.5060900       1.5460800      -0.9604100
 C       -1.8142300       1.2291600      -0.4302000
 C       -2.7401600       0.2892200      -1.1673200
 O       -2.2342600       1.8621200       0.5464200
 H        1.6002300       0.9195600      -3.9776300
 H        3.2300100       0.1011700      -5.6144900
 H        3.9049500      -2.3036600      -5.6469900
 H        2.9152600      -3.8808200      -3.9790400
 H        1.3178100      -3.0624100      -2.2869500
 H        1.0735900       1.3383500      -2.1087800
 H       -0.0399800       2.4839700      -0.5998900
 H       -2.3241900       0.0491400      -2.1463700
 H       -3.6670100       0.8310000      -1.2473700
 H       -2.8811400      -0.6236500      -0.5924200

