%chk=dist_36_reactant_1.chk
%mem=2GB
%nprocshared=2
#P AM1 Freq NoSymm

dipolar_000404 AM1 SPE on distorted reactant_1 @ TS geom (n=21)

0 1
 C       -1.4705200       3.4144100       0.3057900
 C       -1.1650600       2.4568800      -0.8027800
 O       -1.5754600       2.5609600      -1.9381900
 C       -0.3735000       1.1925900      -0.3734300
 N        0.8944800       1.1410300      -0.6751900
 C        1.6147900       0.0947200      -0.0666000
 C        2.4253800      -0.7788200      -0.9584300
 C        2.2627400      -0.5885900      -2.4474500
 O        3.1503100      -1.6684800      -0.5141600
 C        2.0131600       0.4299600       1.3392700
 C        3.0135500      -0.4349500       2.0610100
 O        1.4873700       1.3885700       1.9074000
 H       -2.0853800       2.8612600       1.0401900
 H       -0.5542500       3.7224400       0.8260700
 H       -2.0361600       4.2916300      -0.0578900
 H        2.8868300      -1.3277800      -2.9867400
 H        2.5252400       0.4247300      -2.7742800
 H        1.2069000      -0.7580100      -2.7211400
 H        3.0891600      -0.0886600       3.1042900
 H        2.6994700      -1.4828700       2.0300600
 H        4.0080800      -0.3875900       1.5834100

