%chk=dist_167_reactant_1.chk
%mem=2GB
%nprocshared=2
#P AM1 Freq NoSymm

dipolar_002345 AM1 SPE on distorted reactant_1 @ TS geom (n=28)

0 1
 C        1.2103600       2.3720700       3.8454200
 N        1.4948600       1.2865800       2.9220300
 C        1.5103000       1.4935800       1.5827900
 O        1.5262900       2.6475800       1.1176000
 C        1.4412200       0.2861700       0.6899400
 C        2.3545600       0.2100500      -0.4772500
 C        2.6257200      -1.0469200      -1.0720500
 C        3.3577500      -1.1491300      -2.2558900
 C        3.8452800      -0.0008500      -2.8879500
 C        3.6115900       1.2478200      -2.3026600
 C        2.8848900       1.3560600      -1.1162000
 N        1.3173000      -0.9598100       1.4093400
 C        0.1258200      -1.5100500       1.3636500
 C        0.0303400      -2.7791700       2.2900700
 C        0.5854800      -4.0797000       1.7888500
 O       -0.5148100      -2.6568800       3.3627800
 H        0.1629500       2.7327300       3.7440600
 H        1.8728800       3.2324900       3.6677400
 H        1.3516300       2.0266900       4.8778800
 H        1.4551900       0.3436400       3.2829000
 H        2.2596600      -1.9586000      -0.6056100
 H        3.5320400      -2.1347000      -2.7074800
 H        4.3992000      -0.0779200      -3.8342100
 H        3.9864100       2.1547700      -2.7935000
 H        2.7185700       2.3322300      -0.6780200
 H        1.6760500      -4.0630300       1.6982300
 H        0.1815900      -4.2816100       0.7775700
 H        0.2873900      -4.9327100       2.4625000

