%chk=dist_1_reactant_2.chk
%mem=2GB
%nprocshared=2
#P AM1 Freq NoSymm

dipolar_000017 AM1 SPE on distorted reactant_2 @ TS geom (n=7)

0 1
 C        0.8960600       1.3104400      -0.0466600
 F        2.1287300       1.8373600       0.2960100
 C       -0.2775600       1.7672600      -0.2230600
 C       -1.5092600       2.6064200      -0.3016500
 H       -1.4121900       3.6938200      -0.2505200
 H       -2.2254900       2.2962700       0.5053400
 H       -2.0507400       2.3621400      -1.2569300

