%chk=dist_185_reactant_1.chk
%mem=2GB
%nprocshared=2
#P AM1 Freq NoSymm

dipolar_002647 AM1 SPE on distorted reactant_1 @ TS geom (n=29)

0 1
 C       -7.3148800      -5.7403000       1.4629100
 N       -7.1286000      -5.1111200       0.1550000
 C       -7.6213200      -3.8978800      -0.1035200
 O       -8.4268600      -3.2841000       0.5939800
 C       -7.0895800      -3.1999000      -1.3346200
 N       -7.4765900      -3.3935600      -2.4981300
 C       -7.3908400      -2.8290400      -3.6959500
 C       -8.5174600      -1.8554800      -3.9387800
 O       -9.3512700      -1.5923000      -3.0943600
 O       -8.4698500      -1.2990100      -5.1393000
 C       -9.4728800      -0.3129600      -5.4455300
 C       -6.6023800      -3.5156800      -4.7478300
 C       -5.3669500      -4.0802000      -4.3760800
 C       -4.5656500      -4.7146900      -5.3203900
 C       -4.9893000      -4.8067500      -6.6527500
 C       -6.2250000      -4.2727300      -7.0246700
 C       -7.0334700      -3.6324200      -6.0804600
 H       -7.0799800      -6.8240600       1.4455800
 H       -6.6162100      -5.2810700       2.2288500
 H       -8.3336300      -5.6222400       1.8649900
 H       -6.4107600      -5.5025300      -0.4114400
 H      -10.4878900      -0.7393300      -5.4128200
 H       -9.4039700       0.5191900      -4.7318800
 H       -9.2477000       0.0429300      -6.4622100
 H       -5.0652500      -4.0010700      -3.3377900
 H       -3.6084600      -5.1131900      -5.0032100
 H       -4.3327000      -5.2802600      -7.3887000
 H       -6.5443600      -4.3512400      -8.0740200
 H       -8.0052900      -3.2502500      -6.4106400

