%chk=dist_18_reactant_1.chk
%mem=2GB
%nprocshared=2
#P AM1 Freq NoSymm

dipolar_000173 AM1 SPE on distorted reactant_1 @ TS geom (n=9)

0 1
 C       -1.6722000       0.3935700       0.1486900
 F       -2.9984500       0.9285300       0.0564900
 C       -1.4290800      -0.7808500      -0.4755600
 C       -0.7857000      -1.9183000      -0.9530300
 C       -0.7068300      -3.1237500      -0.0141500
 O       -0.2359300      -2.0120200      -2.0889400
 H       -0.5985800      -4.0659700      -0.6010100
 H       -1.5718600      -3.1989900       0.6465800
 H        0.2003900      -3.0325200       0.6147600

