%chk=dist_133_reactant_2.chk
%mem=2GB
%nprocshared=2
#P AM1 Freq NoSymm

dipolar_001736 AM1 SPE on distorted reactant_2 @ TS geom (n=25)

0 1
 C        0.6519100       0.1667100       0.1732700
 C        1.5188700      -0.6508300       0.0834400
 C        2.8099100      -1.3114700       0.2527600
 C        3.6954100      -0.2272400       0.9025800
 C        3.3051600       0.2094000       2.3255200
 C        1.8812000       0.7315200       2.6232900
 C        1.3393300       1.8426500       1.6878200
 C        0.1460400       1.3412700       0.8422800
 Br      -0.3407300       2.7995200      -0.4818500
 C       -1.1412300       1.1214100       1.6586600
 C       -1.5096400       2.1855800       2.6494700
 O       -1.7853400       0.0966400       1.5412300
 H        3.2311500      -1.6630000      -0.6765400
 H        2.6803200      -2.1848900       0.9127300
 H        3.6532400       0.6600400       0.2232600
 H        4.6935600      -0.5898100       0.9002000
 H        4.0102800       0.9989100       2.6098300
 H        3.4938000      -0.6396700       3.0018000
 H        1.1764000      -0.1423300       2.6230600
 H        1.8613500       1.1094800       3.6379200
 H        2.1243000       2.1178500       0.9482900
 H        1.0415100       2.7044000       2.2038800
 H       -1.2328100       3.1896000       2.2896600
 H       -2.5604500       2.1154300       2.8730600
 H       -0.9195800       1.9857700       3.5605500

