%chk=dist_93_reactant_1.chk
%mem=2GB
%nprocshared=2
#P AM1 Freq NoSymm

dipolar_001250 AM1 SPE on distorted reactant_1 @ TS geom (n=33)

0 1
 C        1.7158000      -2.4521000       3.1398400
 N        0.9266300      -3.6548400       3.2866700
 C        0.0092500      -4.0440700       2.3872400
 O       -0.1772700      -3.4475900       1.3145800
 C       -0.7469900      -5.3238100       2.6894400
 C       -0.5680900      -5.9630900       4.0821100
 C       -1.2747100      -7.3194900       4.2913600
 C       -2.7953700      -7.3707700       4.6044700
 C       -3.7911500      -7.6766000       3.4580200
 C       -4.5258000      -6.4456100       2.8306700
 C       -5.4871300      -5.8094500       3.8489000
 C       -5.2952300      -6.8851300       1.5749300
 C       -3.3320500      -5.6697700       2.5358300
 C       -2.1913600      -5.2522900       2.4540500
 H        1.1665500      -1.5729500       3.4980100
 H        1.9679000      -2.3116000       2.0829100
 H        2.6380100      -2.5650900       3.7206900
 H        0.9320700      -4.1298000       4.1864700
 H       -0.3963200      -6.0386300       1.9318700
 H        0.5053000      -6.1230800       4.2175400
 H       -0.9034100      -5.2474100       4.8552300
 H       -1.0432200      -7.9835700       3.4491000
 H       -0.7639300      -7.7707000       5.1695600
 H       -3.0822100      -6.4383200       5.1331500
 H       -2.9431700      -8.1704100       5.3244800
 H       -3.2148700      -8.1304900       2.6108900
 H       -4.5411300      -8.3362000       3.7572900
 H       -4.9572100      -5.4878600       4.7593400
 H       -6.0143100      -4.9300200       3.4440600
 H       -6.2307900      -6.5592000       4.1210500
 H       -5.8748400      -6.0535000       1.1282500
 H       -4.5978700      -7.2566900       0.8020900
 H       -5.9821000      -7.6742600       1.8478100

