%chk=dist_178_reactant_2.chk
%mem=2GB
%nprocshared=2
#P AM1 Freq NoSymm

dipolar_002497 AM1 SPE on distorted reactant_2 @ TS geom (n=37)

0 1
 C        1.2988100      -0.0916000       0.0466700
 C        2.3581200      -0.3622500      -1.0089400
 O        3.5247100      -0.0671400      -0.6680000
 N        2.0881400      -0.8473400      -2.2311200
 C        3.1047500      -0.7896500      -3.2723300
 C        1.5295500      -0.7862000       1.3930100
 O        0.6184400      -1.2503800       2.1045100
 N        2.8064300      -0.8253100       1.7993500
 C        3.1784600      -1.2618600       3.1240500
 C        0.3264100       0.7930000      -0.0918300
 C       -0.0111300       1.4013400      -1.4406900
 O       -0.0036500       0.7659000      -2.5051700
 N       -0.2944500       2.7125200      -1.4291700
 C       -0.6715200       3.4102800      -2.6388100
 C       -0.2415100       1.4922900       1.1027700
 C       -1.5731300       1.9250400       1.2027200
 C       -1.9963700       2.6641600       2.3089100
 C       -1.0981700       2.9899100       3.3304400
 C        0.2356700       2.5861900       3.2289800
 C        0.6585300       1.8565200       2.1210000
 H        1.1189500      -0.7595500      -2.5383900
 H        4.0413600      -1.2516500      -2.9271900
 H        3.3351400       0.2586800      -3.5611000
 H        2.7535400      -1.3233200      -4.1637600
 H        3.4679500      -0.4265200       1.1336100
 H        4.2691900      -1.1972100       3.2059600
 H        2.8523200      -2.2846700       3.3113400
 H        2.7259600      -0.6049700       3.8911000
 H       -0.3197900       3.1963700      -0.5398700
 H       -0.8475000       4.4592800      -2.3882200
 H       -1.5853800       2.9780900      -3.0686800
 H        0.1277500       3.3472200      -3.3929100
 H       -2.2842200       1.6920100       0.4168800
 H       -3.0341300       2.9889000       2.3706600
 H       -1.4250100       3.5660200       4.1955200
 H        0.9613800       2.8490000       3.9974300
 H        1.7131500       1.5756200       2.0271500

