%chk=dist_63_reactant_1.chk
%mem=2GB
%nprocshared=2
#P AM1 Freq NoSymm

dipolar_000763 AM1 SPE on distorted reactant_1 @ TS geom (n=19)

0 1
 C        3.5650600       0.9188700       2.5655100
 N        3.2284300       0.4360700       1.2377000
 C        2.1497600       0.9034700       0.5888200
 O        1.4815900       1.8478900       1.0343000
 C        1.8180200       0.2077300      -0.7096900
 C        2.8475600      -0.6734800      -1.3560000
 N        0.9868600       0.8489000      -1.5796000
 C       -0.2369400       1.3390400      -1.1199500
 C       -1.0969200       1.8646200      -2.1499700
 N       -1.8527100       2.2235000      -2.9601800
 H        3.7639600       1.9983400       2.5830100
 H        4.4610400       0.3881300       2.9218000
 H        2.7340800       0.7093600       3.2614100
 H        3.7715800      -0.3274500       0.8564400
 H        3.0529800      -1.5170400      -0.7246800
 H        2.4912700      -1.0212400      -2.3333900
 H        3.8397600      -0.1488400      -1.5486200
 H        0.9462800       0.4300700      -2.4915400
 H       -0.1180900       2.0494400      -0.2473400

