%chk=dist_34_reactant_1.chk
%mem=2GB
%nprocshared=2
#P AM1 Freq NoSymm

dipolar_000393 AM1 SPE on distorted reactant_1 @ TS geom (n=12)

0 1
 C       -3.6026900      -0.5676700      -1.3383500
 N       -3.3868400       0.6614500      -0.5914300
 C       -2.2260500       1.2975900      -0.3935600
 O       -2.1177600       2.3700800       0.2031600
 C       -0.9362900       0.6121500      -0.8666200
 N       -0.5972300       0.5876200      -2.1147300
 N        0.6080600       0.3847000      -2.5387200
 H       -3.6451800      -0.3706800      -2.4195800
 H       -4.5668100      -1.0163000      -1.0327600
 H       -2.8106800      -1.2811700      -1.1275700
 H       -4.2409400       1.1288400      -0.1851700
 H        0.5149800      -0.4023100      -3.3023800

