%chk=dist_178_reactant_1.chk
%mem=2GB
%nprocshared=2
#P AM1 Freq NoSymm

dipolar_002497 AM1 SPE on distorted reactant_1 @ TS geom (n=22)

0 1
 C       -2.8216000      -0.9351400       3.0672100
 N       -2.1504600      -1.1561700       1.8036500
 C       -2.7488300      -0.8002200       0.6469200
 O       -3.9106700      -0.3551200       0.6055700
 C       -1.9828800      -0.9955900      -0.5971100
 C       -2.4325300      -0.4479700      -1.8654000
 O       -3.0772300       0.5835500      -1.9986200
 O       -2.0610000      -1.2152800      -2.9099900
 C       -2.3772700      -0.7219700      -4.2116200
 N       -0.9483900      -1.8122400      -0.6034700
 C        0.0944000      -2.4023900      -0.5148600
 C        1.0597200      -3.4567900      -0.4278300
 H       -2.9775800       0.1368600       3.2734900
 H       -2.2118000      -1.3624500       3.8736700
 H       -3.8093400      -1.4265000       3.0756900
 H       -1.1219500      -1.2483200       1.8353000
 H       -3.4670200      -0.5864800      -4.3149200
 H       -1.8662700       0.2264600      -4.3968100
 H       -2.0289100      -1.4918600      -4.9083000
 H        0.7451700      -3.9889100       0.4374500
 H        0.9223500      -3.9611700      -1.3436900
 H        2.1141300      -3.1036200      -0.3102500

