%chk=dist_47_reactant_1.chk
%mem=2GB
%nprocshared=2
#P AM1 Freq NoSymm

dipolar_000517 AM1 SPE on distorted reactant_1 @ TS geom (n=17)

0 1
 C        1.5017900       0.6728500       3.0863200
 N        1.5355400      -0.0062500       1.8047800
 C        1.5190300       0.6750300       0.6510900
 O        1.6519500       1.9019400       0.5870700
 C        1.2191600      -0.1493400      -0.6282300
 C        1.6575900       0.6249400      -1.7906100
 N        1.9296300       1.2166600      -2.7549300
 N        1.8647300      -1.4571900      -0.6030700
 C        2.2128100      -2.1277600      -1.8529800
 O        0.9246100      -2.1954300       0.2157100
 H        0.5641800       1.2507500       3.2101400
 H        1.5581400      -0.0722700       3.8888500
 H        2.3423800       1.3704800       3.1844400
 H        1.3667400      -1.0125800       1.7524500
 H        2.5666700      -3.1408100      -1.5857100
 H        3.1010900      -1.5941900      -2.2934600
 H        1.4433100      -2.1962700      -2.6146400

