%chk=dist_168_reactant_1.chk
%mem=2GB
%nprocshared=2
#P AM1 Freq NoSymm

dipolar_002349 AM1 SPE on distorted reactant_1 @ TS geom (n=26)

0 1
 C        0.0962900      -0.2690000      -0.0750100
 C        0.4191400      -1.1332800       0.8227400
 C        1.3292600      -2.3090700       1.1598800
 C        0.4765200      -3.5569000       1.4576500
 C        2.1638400      -1.9470600       2.4098100
 C        2.3690300      -2.6365900       0.0497800
 C        1.8932800      -3.3064700      -1.2409000
 C        0.8518800      -2.5354800      -2.0564700
 C        1.2230200      -1.0587100      -2.2811200
 C        0.3309600      -0.0740700      -1.5222500
 Br      -1.4738000      -0.1211800      -2.4791600
 Br       1.1008100       1.7595600      -1.8803800
 H       -0.1501200      -3.3856500       2.3480300
 H       -0.1739000      -3.8104000       0.6211400
 H        1.1176200      -4.4363900       1.6807200
 H        2.7795900      -2.8094600       2.7509700
 H        1.5342600      -1.6410700       3.2511300
 H        2.8594600      -1.1180200       2.1930100
 H        2.9611700      -1.7572700      -0.1697100
 H        3.1281100      -3.3730700       0.5024500
 H        2.7995100      -3.4859100      -1.8744300
 H        1.4964600      -4.3191900      -1.0392500
 H        0.7617100      -3.0555800      -3.0500700
 H       -0.1156300      -2.6009100      -1.6032700
 H        2.2690100      -0.8650900      -2.0204900
 H        1.1848500      -0.8191200      -3.4077200

