%chk=dist_120_reactant_1.chk
%mem=2GB
%nprocshared=2
#P AM1 Freq NoSymm

dipolar_001530 AM1 SPE on distorted reactant_1 @ TS geom (n=26)

0 1
 C       -1.6391700      -0.4112400       1.2254500
 N       -0.4759300      -0.5086300       1.7765900
 C        0.6915800      -0.2787000       0.9961100
 C        1.4983400       0.8766600       1.4798000
 C        2.3649000       1.5471100       0.5915700
 C        3.0130600       2.7215900       0.9667000
 C        2.8225500       3.2632000       2.2438400
 C        1.9827600       2.6013800       3.1444700
 C        1.3325700       1.4203100       2.7726600
 C        1.3574000      -1.5263700       0.5484500
 C        0.6342800      -2.7441300       0.4767500
 C        1.1932300      -3.8935500      -0.0787400
 C        2.5058500      -3.8843200      -0.5662700
 C        3.2567200      -2.7106000      -0.4536400
 C        2.7009700      -1.5567400       0.1042800
 H       -2.5203200      -0.7383800       2.0264500
 H        2.4751400       1.1678000      -0.4197000
 H        3.6509600       3.2284700       0.2416100
 H        3.3250600       4.1941600       2.5232300
 H        1.8295200       3.0232800       4.1479300
 H        0.6825300       0.9259700       3.4982300
 H       -0.3843600      -2.7943500       0.8530000
 H        0.5932700      -4.8088900      -0.1427200
 H        2.9396100      -4.7836900      -1.0193600
 H        4.2928700      -2.6909200      -0.8099400
 H        3.3295200      -0.6758900       0.1979200

