%chk=dist_65_reactant_2.chk
%mem=2GB
%nprocshared=2
#P AM1 Freq NoSymm

dipolar_000784 AM1 SPE on distorted reactant_2 @ TS geom (n=11)

0 1
 C        1.3407100      -3.1811600      -1.4163200
 N        0.1300600      -2.4215700      -1.1726700
 C       -0.1997600      -1.4332200      -2.0109600
 O        0.3861700      -1.1857100      -3.0660100
 C       -1.3476500      -0.6153700      -1.6188500
 C       -2.3236200       0.1211900      -1.5547400
 F       -3.2971700       0.9661400      -1.4074600
 H        1.5145000      -3.8385300      -0.5698000
 H        1.2454200      -3.7858600      -2.3349000
 H        2.1995700      -2.5061400      -1.5444700
 H       -0.2224200      -2.4036400      -0.2112800

