%chk=dist_107_reactant_1.chk
%mem=2GB
%nprocshared=2
#P AM1 Freq NoSymm

dipolar_001402 AM1 SPE on distorted reactant_1 @ TS geom (n=14)

0 1
 C        0.0705500      -2.1135100       3.1298300
 C        0.9929400      -1.0655300       2.5700000
 O        1.4151200      -0.1127400       3.2300000
 C        1.4340200      -1.2131000       1.2012400
 O        0.9104900      -2.1840100       0.3715200
 C        1.4669800      -2.0923700      -0.7852500
 C        1.0895900      -2.9228800      -1.8752300
 N        0.8408100      -3.6508700      -2.7525000
 O        2.2546100      -1.0807800      -0.8951800
 C        2.2994300      -0.3957300       0.4538500
 O        2.9819300       0.5859600       0.5870600
 H        0.6237200      -3.0716400       3.1459200
 H       -0.2173300      -1.8382800       4.1482800
 H       -0.8151700      -2.2577800       2.5001500

