%chk=dist_48_reactant_2.chk
%mem=2GB
%nprocshared=2
#P AM1 Freq NoSymm

dipolar_000535 AM1 SPE on distorted reactant_2 @ TS geom (n=13)

0 1
 C       -1.0799500       0.7263500      -0.2055900
 C       -0.2969700       0.7054800      -1.5401000
 O        0.0925500      -0.6783700      -1.6064900
 C       -1.2260800      -1.2040700      -1.3942700
 C       -1.9680500      -0.4803400      -2.5351000
 F       -3.1028200      -0.9473300      -3.0666300
 C       -1.3868300       0.7140400      -2.6233300
 F       -1.7565400       1.8280300      -3.2628700
 C       -1.6457700      -0.4440300      -0.1016300
 H       -1.1461200       1.5915300       0.4462000
 H        0.5723600       1.3804800      -1.6709000
 H       -1.2306400      -2.3136100      -1.4321900
 H       -2.2991100      -0.8784200       0.6478300

