%chk=dist_106_reactant_2.chk
%mem=2GB
%nprocshared=2
#P AM1 Freq NoSymm

dipolar_001399 AM1 SPE on distorted reactant_2 @ TS geom (n=21)

0 1
 C       -0.6069500       2.1484500       0.8018400
 C       -1.8151000       2.7872300       0.1540600
 C       -0.8232400       1.6011400       2.0605300
 N       -1.1532900       1.1863500       3.1179400
 N        0.6740000       2.3399700       0.2561200
 C        0.7870200       3.4752600      -0.6941600
 C        1.7849000       1.6656000       0.5161400
 C        3.0360900       1.9253100      -0.2585200
 C        1.8755300       0.7051800       1.6633600
 H       -2.7276600       2.1721400       0.3872600
 H       -1.7682000       2.8214800      -0.9557700
 H       -1.9752300       3.7742600       0.5354900
 H       -0.0279000       4.1723100      -0.4799500
 H        1.7282700       3.9840800      -0.4591100
 H        0.7529600       3.1536900      -1.7186000
 H        3.5816300       2.6403300       0.2343700
 H        3.6221000       0.9541600      -0.3299500
 H        2.8423500       2.2004300      -1.3267400
 H        2.1014000       1.3419800       2.5193500
 H        2.7341200       0.0072100       1.5285000
 H        0.9979800       0.1054800       1.8989900

