%chk=dist_153_reactant_2.chk
%mem=2GB
%nprocshared=2
#P AM1 Freq NoSymm

dipolar_002058 AM1 SPE on distorted reactant_2 @ TS geom (n=24)

0 1
 C       -8.4200600      -1.5297000       0.4129200
 C       -9.8300400      -1.6652500       0.3056000
 C      -10.4421100      -0.9784600      -0.8947800
 O      -10.4887900      -2.3722700       1.0889800
 N       -7.4955000      -0.8649300       0.8532400
 C       -6.4372600      -0.2067100       1.1718600
 C       -5.7364100      -0.5230300       2.4645500
 C       -5.9017100       0.7638100       0.2043200
 C       -6.4529300       0.8952700      -1.0884800
 C       -5.9103100       1.7971600      -2.0021300
 C       -4.8100600       2.5890700      -1.6493300
 C       -4.2536000       2.4620900      -0.3728900
 C       -4.7902600       1.5582700       0.5464400
 H      -11.3531000      -1.4572900      -1.1434100
 H       -9.7301700      -0.9648200      -1.7672200
 H      -10.5746000       0.0572300      -0.5797300
 H       -6.1843600      -1.4136900       2.9348800
 H       -4.6435200      -0.8128500       2.2588900
 H       -5.7398200       0.3103400       3.0983100
 H       -7.2833700       0.2586500      -1.4048100
 H       -6.3625200       1.9082200      -2.9943900
 H       -4.4114700       3.3287000      -2.3490500
 H       -3.4010600       3.0774500      -0.0803900
 H       -4.3150900       1.4304100       1.5163600

