%chk=dist_67_reactant_1.chk
%mem=2GB
%nprocshared=2
#P AM1 Freq NoSymm

dipolar_000853 AM1 SPE on distorted reactant_1 @ TS geom (n=19)

0 1
 C        2.3744200      -2.3660200       2.1089300
 O        2.0494400      -1.2337500       1.2957600
 C        0.8236600      -0.7136400       1.4443000
 O       -0.0113800      -1.1619000       2.2138400
 C        0.6650200       0.4940600       0.6472000
 C        1.8144200       1.2462600      -0.0530800
 C        2.3705100       2.1857500       1.0576800
 C        1.4270500       3.1125700       1.2390800
 C        0.3036500       2.7299000       0.2308000
 O        1.0835100       2.2003800      -0.8400900
 C       -0.2060000       1.4411200       0.8668800
 F       -1.2538500       1.4462700       1.7119800
 H        2.2723500      -2.1095100       3.1771100
 H        3.4120800      -2.6128800       1.8778000
 H        1.7137600      -3.2053500       1.8704200
 H        2.5273200       0.6653800      -0.6567400
 H        3.2507600       1.9915700       1.6231000
 H        1.2973900       3.8783300       1.9662500
 H       -0.4003900       3.5003800      -0.1300600

