%chk=dist_50_reactant_2.chk
%mem=2GB
%nprocshared=2
#P AM1 Freq NoSymm

dipolar_000551 AM1 SPE on distorted reactant_2 @ TS geom (n=17)

0 1
 N       -0.0796300      -3.3350800       0.2610800
 N       -1.3944300      -2.9372500       0.1794600
 C       -1.5380200      -1.6348600      -0.3364900
 C       -2.8898000      -0.9968800      -0.1983600
 C       -3.6993700      -1.1785600       0.9388600
 C       -4.8720300      -0.4367900       1.1065900
 C       -5.2570000       0.5036100       0.1446200
 C       -4.4738000       0.6778700      -0.9999500
 C       -3.3087900      -0.0748500      -1.1732500
 H        0.2315800      -3.2243400      -0.7096500
 H       -1.9737600      -3.1790200       0.9930500
 H       -1.1792700      -1.6243500      -1.3948200
 H       -3.4251700      -1.8950500       1.7176000
 H       -5.4794000      -0.5696900       2.0096800
 H       -6.1622400       1.1076700       0.2910600
 H       -4.7616000       1.4148900      -1.7548100
 H       -2.7085600       0.0541800      -2.0742800

