%chk=dist_78_reactant_2.chk
%mem=2GB
%nprocshared=2
#P AM1 Freq NoSymm

dipolar_001090 AM1 SPE on distorted reactant_2 @ TS geom (n=18)

0 1
 C       -0.2181300      -0.8677200       0.8141600
 O       -0.0258800      -2.2669500       0.5941700
 C       -0.4838600      -3.1854000       1.6015300
 C       -1.6564500      -0.4891700       0.4729000
 O       -2.4289700      -1.5214300      -0.0202800
 C       -3.8204500      -1.2280700      -0.2293000
 O       -2.3992500       0.2987900       1.2937400
 C       -1.9095300       0.8998500       2.4986200
 H        0.0236600      -0.6245800       1.9217500
 H       -1.5674100      -3.2214100       1.7038300
 H       -0.1504500      -4.2188300       1.2337000
 H       -0.0046300      -3.0300400       2.5745100
 H       -4.2072100      -1.9904800      -0.9174800
 H       -3.9828100      -0.2242200      -0.6744400
 H       -4.3854100      -1.2732000       0.7208400
 H       -2.7001900       1.6160700       2.8280300
 H       -1.7722400       0.1443500       3.2821700
 H       -0.9900400       1.4488100       2.3207400

