%chk=dist_135_reactant_1.chk
%mem=2GB
%nprocshared=2
#P AM1 Freq NoSymm

dipolar_001779 AM1 SPE on distorted reactant_1 @ TS geom (n=14)

0 1
 C       -0.7272400      -1.4356600      -0.2730600
 C        0.8077800      -1.5512300      -0.2424500
 O        1.4423500      -2.3198900       0.6522900
 C        0.7736800      -2.9153800       1.7775300
 O        1.4271300      -1.5975300      -1.4438600
 C        2.8790000      -1.5930500      -1.4158700
 H       -1.1713100      -2.4386100       0.1715400
 H       -0.9998200      -1.5455200      -1.3959300
 H        0.0784800      -2.2226300       2.2422400
 H        1.5670000      -3.1912600       2.4844200
 H        0.2491600      -3.8243000       1.4383400
 H        3.2212300      -1.4047100      -2.4375700
 H        3.2428100      -0.7819700      -0.7482700
 H        3.2656000      -2.5564300      -1.0567400

