26
dipolar_001530 reactant_2 @ TS geom
C       -2.4004100      -3.4828500      -1.4639300
O       -1.8444800      -2.1674800      -1.3357800
C       -2.6315600      -1.2243600      -0.8197100
O       -3.8169900      -1.4106600      -0.5987800
C       -1.8970000       0.0246300      -0.3595000
C       -0.5963000       0.4622700      -0.9649300
C        0.2268500      -0.2458900      -2.0163500
C       -0.7771900       1.9780500      -1.2024500
C       -0.9357600       2.7412400       0.1380000
C       -2.3424100       2.3016500       0.6373900
C       -2.8002900       1.3207500      -0.4586400
C       -2.2438900       2.0215400      -1.7211600
H       -2.7294100      -3.8564500      -0.4757000
H       -1.5985300      -4.1168600      -1.8516400
H       -3.2554700      -3.4789900      -2.1481100
H       -0.1028400      -0.1118800      -3.0526800
H        0.3179200      -1.3152900      -1.8170700
H        1.2625100       0.1853400      -1.9665800
H       -0.0239200       2.4293200      -1.8840100
H       -0.8916200       3.8157000      -0.0203000
H       -0.1346100       2.4627500       0.8307800
H       -3.0249800       3.1390400       0.7141800
H       -2.3084800       1.7970300       1.6183700
H       -3.8857800       1.1139000      -0.4726700
H       -2.4329200       1.5450100      -2.6761300
H       -2.6390000       3.1169700      -1.8231300
