26
dipolar_001530 reactant_2 (FRAG2 relaxed, reordered to d) type=dipolarophile
C       -2.2785400       0.1944300      -0.0529100
O        1.9767900       1.5278600       0.0921700
C       -0.9971300       1.0066500      -0.1056700
O        2.1613900      -0.7003900       0.3440600
C        0.0036700       0.1711800       0.2858600
C       -1.0444000      -1.7769500      -0.8034100
C       -2.1781200      -0.8103000      -1.2506300
C       -0.6229100      -1.1888900       0.5787400
C        3.5850100      -0.5675800       0.2964000
C        1.4402800       0.4361700       0.2270100
C       -0.9570000       2.3865500      -0.6546900
C       -1.9895600      -0.7442000       1.1349800
H       -1.9112400      -0.2119700       2.0947400
H       -3.2033100       0.7854400      -0.0352300
H       -1.5579300       3.0621400      -0.0210800
H       -1.9590600      -0.2933100      -2.1961300
H       -3.1355600      -1.3384500      -1.3714000
H       -1.4179400      -2.8053600      -0.6855900
H       -0.1969600      -1.8030100      -1.5031100
H        3.9889600      -1.5813000       0.4044200
H       -0.0191500      -1.8620900       1.1977000
H        3.9449900       0.0712400       1.1166500
H        3.9047700      -0.1347400      -0.6632300
H        0.0623400       2.7814900      -0.7304500
H       -1.4301100       2.4027300      -1.6522200
H       -2.7150700      -1.5676100       1.2232700
