20
dipolar_000561 reactant_1 (FRAG1 relaxed, reordered to d) type=dipole
C       -1.6643400      -0.6595100       0.3674900
C       -0.9306500       0.3737700      -0.3377000
O       -1.1171900      -1.5510100       1.0471200
C        1.2364200      -0.4235400       0.3846300
C        2.6322300      -0.3025500       0.3964600
C       -1.6443800       1.4193700      -1.1478900
C        1.0815100       1.5279300      -1.0327800
N        0.4332500       0.4284600      -0.2850700
N        3.8019900      -0.2781500       0.4610900
C       -3.1774200      -0.6565800       0.2772400
H        0.7583400      -1.2306700       0.9322100
H       -3.6037000       0.2789900       0.6723500
H       -3.5569600      -1.5008400       0.8670300
H        2.1657600       1.4656500      -0.9134400
H        0.7265800       2.4901300      -0.6466200
H        0.8271200       1.4469200      -2.0955400
H       -2.7261200       1.2681900      -1.1066600
H       -1.3533300       1.3941700      -2.2113300
H       -1.4449400       2.4403600      -0.7826100
H       -3.5209400      -0.7612300      -0.7638700
