20
dipolar_000561 reactant_2 (FRAG2 relaxed, reordered to d) type=dipolarophile
C       -1.4110800       1.1818200       0.4015300
C        0.0190300       1.7420800       0.5284200
C       -1.8116200       0.4671600      -0.9206800
F       -0.3127700      -1.6856000      -2.5608600
F        2.3041800       1.3353900       1.0152000
C        1.0592500       0.7683000       1.0694100
C        0.3933800      -1.2788900      -0.3775800
C       -0.6571700      -1.8514700      -1.2134800
C       -1.9431000      -1.0700300      -0.9130000
C        0.9920200      -0.4949900       0.3267700
F        0.8230800       0.5213700       2.4019900
H        0.3855300       2.0956200      -0.4477100
H       -1.1314400       0.7677200      -1.7355800
H       -0.8020700      -2.9292700      -1.0441700
H        0.0322100       2.6015900       1.2178200
H       -2.6723200      -1.3879100      -1.6755400
H       -2.3272600      -1.4179400       0.0595600
H       -1.6232200       0.5300900       1.2658600
H       -2.8002500       0.8549100      -1.2085000
H       -2.0809500       2.0463600       0.5186600
