20
dipolar_000561 reactant_1 @ TS geom
C        0.6614200      -3.6189200       1.3544100
C        1.1858900      -2.1987400       1.2887300
O        1.1926200      -1.5158700       2.3367000
C        1.6382700      -1.6967900       0.0006900
C        1.7854700      -2.6086700      -1.1848400
C        1.9549100       0.5626500       0.7975500
C        2.2653000       1.9044900       0.5399900
N        2.5109800       3.0439300       0.4031600
N        1.9913300      -0.3895200      -0.1610600
C        2.3891800       0.0277200      -1.5214400
H       -0.1841200      -3.7618900       0.6104400
H        1.4172100      -4.3471000       1.1177000
H        0.2462200      -3.8014400       2.3547900
H        1.2189900      -2.2139400      -2.0877600
H        2.8021200      -2.7156900      -1.4517200
H        1.3307200      -3.5769200      -0.9748300
H        1.6082500       0.2502300       1.8074500
H        2.6921000       1.1001100      -1.4765400
H        3.2622500      -0.5550700      -1.8205400
H        1.5738900      -0.0935000      -2.1993900
