20
dipolar_000561 reactant_2 @ TS geom
C       -1.1855300      -0.6364000       0.0275900
C       -1.0132500       0.3874700       0.6540300
C       -1.2540900       1.8282400       0.8564400
F       -2.5553700       1.9806300       1.3868300
F       -0.4378800       2.3797300       1.8174600
C       -1.1571300       2.6197200      -0.4599900
C       -1.1915000       1.8096600      -1.7663700
C       -2.4025600       0.8644200      -2.0226600
C       -2.0228700      -0.6113200      -2.2728800
C       -1.8623700      -1.4552900      -0.9940800
F       -1.1899500      -2.6459800      -1.3127200
H       -0.1976900       3.1840600      -0.4658200
H       -1.9618500       3.3648500      -0.4144900
H       -1.2179200       2.5672800      -2.6055100
H       -0.2847000       1.2641100      -1.9011200
H       -3.1249900       0.9233100      -1.1415100
H       -3.0020600       1.1956200      -2.8684100
H       -2.8194700      -1.1264000      -2.8131400
H       -1.1068200      -0.6623800      -2.8185000
H       -2.7906000      -1.6703400      -0.4797300
