41
dipolar_002495 reactant_1 (FRAG1 relaxed, reordered to d) type=dipolarophile
C        2.2444500       0.4088900      -0.1406400
N        0.8541500      -1.8595900       2.2175000
C        1.8319100      -1.5989700       1.3458600
O        3.0193700      -1.8680200       1.5743400
C        0.0377100      -0.5404400      -0.0440400
C        1.1256000      -2.4693200       3.5064100
O       -2.7343700       1.2510400       1.2968800
N        2.9704600      -2.4796100      -1.1361100
C        1.4396200      -0.9360700       0.0028700
C       -0.7432500       2.4449300       0.8204700
C        0.6640100       2.5125300       0.1957100
C       -2.3968700       1.8144700      -1.0255400
C       -0.9556200       0.1401900       0.0842200
C        1.7959600      -1.8430900      -1.2032500
O        1.0432900      -1.9019000      -2.1794100
C       -1.7361000       1.3646000       0.3038500
C        3.4474900      -3.3144000      -2.2209100
F       -1.4889300       2.1609900      -1.9525900
F       -3.1501500       0.8379700      -1.5640400
F       -3.1946800       2.8714000      -0.8242100
C       -3.6490000       0.1628800       1.2111200
C        1.7675500       1.5701600       0.7538800
H        3.2925300       0.1674800       0.0843900
H        2.6597500       2.1886000       0.9356300
H        3.4913600      -2.4072400      -0.2623800
H        1.4737600       1.1854900       1.7449300
H        1.7564200      -1.8172800       4.1310300
H        0.1739500      -2.6433900       4.0223000
H        1.6467800      -3.4304000       3.3813200
H       -0.0945900      -1.5764100       1.9912500
H       -0.6588000       2.2471200       1.8992800
H        1.0043900       3.5452100       0.3661900
H        0.6016200       2.4043900      -0.8968100
H        2.1955200       0.7092700      -1.1984700
H       -1.2471200       3.4181700       0.7171900
H       -3.1277700      -0.7808100       0.9751600
H        3.5226900      -2.7401400      -3.1574100
H        2.7719800      -4.1664000      -2.4005600
H       -4.4347400       0.3378400       0.4591800
H       -4.1171700       0.0721100       2.2008600
H        4.4408000      -3.7001300      -1.9613900
