41
dipolar_002495 reactant_1 @ TS geom
C       -2.0191200      -6.4035600       4.1519800
N       -2.5587000      -5.0952300       3.8496600
C       -3.1056400      -4.3374300       4.8106200
O       -3.1498300      -4.6944400       5.9876400
C       -3.6054800      -2.9314100       4.3734800
C       -2.3631000      -1.9905500       4.4132900
O       -2.1160500      -1.2171600       3.4885700
N       -1.6055900      -2.1231100       5.5153900
C       -0.3767900      -1.3912200       5.7484100
C       -4.2827800      -2.9112600       2.9777500
C       -5.4496100      -3.8889400       2.7365100
C       -6.8160300      -3.6933000       3.4392700
C       -7.0179700      -4.4042200       4.8002500
C       -7.0095300      -3.4509400       6.0260200
O       -8.1205700      -2.5899100       6.1400800
C       -9.3753900      -2.9952200       5.5998300
C       -6.9247700      -4.2483200       7.3475300
F       -5.8758600      -5.0856500       7.3765800
F       -6.8126300      -3.4311100       8.4002200
F       -8.0355600      -4.9957100       7.5356900
C       -5.7397500      -2.7275800       5.8484000
C       -4.6586400      -2.6125700       5.3373000
H       -2.8114600      -7.0540300       4.5578300
H       -1.6239500      -6.7986300       3.2450300
H       -1.2366400      -6.3011600       4.9193700
H       -2.5968400      -4.7376000       2.9135200
H       -1.9235700      -2.7725300       6.2332700
H        0.4417500      -2.0993700       5.9828200
H       -0.4777000      -0.6893800       6.5800600
H       -0.1108400      -0.8437200       4.8373500
H       -4.6282100      -1.8644500       2.7903000
H       -3.5036300      -3.0847000       2.2436500
H       -5.6424100      -3.7967700       1.6483600
H       -5.1129200      -4.9057300       2.8976700
H       -7.5762700      -4.1011000       2.7695800
H       -7.0522900      -2.6058800       3.5188600
H       -6.1498700      -5.0766700       4.9717600
H       -7.8992600      -4.9805000       4.8310600
H       -9.7097500      -3.9809000       5.9872900
H       -9.3390900      -3.0585600       4.4870100
H      -10.1019000      -2.2405900       5.8786700
