13
dipolar_002495 reactant_2 @ TS geom
C       -4.4807100       0.4856000       5.7366900
C       -3.1034300       0.8119700       6.1869200
C       -4.8246900       0.5030600       4.3556800
N       -5.0003000       0.5653700       3.2020200
O       -5.3493600       0.2095100       6.6445600
C       -6.6691000      -0.0505900       6.6151200
C       -7.4227600      -0.0313400       5.4241900
N       -8.0867700       0.0470600       4.4590300
C       -7.2433100      -0.3368600       7.8690200
N       -7.7486700      -0.5405600       8.9090200
H       -2.3807500       0.6254500       5.3548300
H       -3.1247800       1.8299600       6.4324700
H       -2.8061300       0.1817200       7.0522900
