21
dipolar_000983 reactant_2 @ TS geom
C        0.5497300       1.8079200       2.7997800
N        0.3380500       0.4869700       2.1746700
C       -0.8382100      -0.1643300       2.4230600
C        1.1566400      -0.0250200       1.2247600
C        2.2787000       0.6421500       0.5754400
C        2.3574600       2.0303400       0.3142500
C        3.4178700       2.5606800      -0.4227400
C        4.4231000       1.7305800      -0.9284400
C        4.3584500       0.3533600      -0.6860800
C        3.3060200      -0.1802900       0.0544700
H        0.1606600       1.8318800       3.8345700
H        0.1116700       2.6194700       2.2374200
H        1.6674100       2.0374900       2.9025900
H       -0.7625400      -1.2335100       2.3972800
H       -1.3263700       0.2445400       3.4071600
H        1.1941000      -1.1047200       1.2424200
H        1.5884400       2.7119400       0.6672500
H        3.4450200       3.6391100      -0.6239500
H        5.2386700       2.1570700      -1.5351400
H        5.1252200      -0.3061300      -1.1013000
H        3.2721200      -1.2511300       0.2336800
