20
dipolar_000983 reactant_1 (FRAG1 relaxed, reordered to d) type=dipolarophile
C       -1.5140200      -0.7433900      -1.8161500
Cl      -0.1948000       2.4291600       0.1590400
C       -1.9083600       0.4446400      -0.9147700
C       -2.6196500      -0.2998500       0.2631100
C       -0.5433100       0.8242800      -0.3763500
C       -1.7911300      -1.6090000       0.3988000
C       -0.7013900      -1.4456400      -0.7090400
C        0.1940000      -0.2958600      -0.2562100
C        1.5095600      -0.5157400       0.3923400
F        2.1717600       0.6178600       0.6678800
F        2.3214600      -1.2699600      -0.3827700
F        1.3790400      -1.1920100       1.5605200
H       -2.3804500      -1.3307700      -2.1545100
H       -2.4780600       1.2692500      -1.3579000
H       -2.6243000       0.3081400       1.1787100
H       -1.3390500      -1.7335200       1.3919800
H       -3.6638500      -0.5078200      -0.0113300
H       -0.1687100      -2.3666400      -0.9749600
H       -2.4055100      -2.4970000       0.1900500
H       -0.9001900      -0.4441500      -2.6777200
