41
dipolar_000983 TS complex (tags stripped)
C        0.5497300       1.8079200       2.7997800
N        0.3380500       0.4869700       2.1746700
C       -0.8382100      -0.1643300       2.4230600
C       -1.8057800      -0.2057500       0.5584200
Cl      -2.9013500      -1.5893300       0.8923000
C       -2.5329600       1.0883100       0.1620300
C       -3.2139600       0.8546100      -1.2278300
C       -2.0060400       0.7787200      -2.2101500
C       -0.7792700       0.9094300      -1.2518800
C       -1.3316600       1.9533100      -0.2617300
C       -0.7394900      -0.3365900      -0.3638600
C       -0.2508600      -1.6173600      -0.9210300
F       -1.0850900      -2.1728800      -1.8499900
F       -0.0749200      -2.5864600       0.0143700
F        0.9401200      -1.4822100      -1.5647700
C        1.1566400      -0.0250200       1.2247600
C        2.2787000       0.6421500       0.5754400
C        2.3574600       2.0303400       0.3142500
C        3.4178700       2.5606800      -0.4227400
C        4.4231000       1.7305800      -0.9284400
C        4.3584500       0.3533600      -0.6860800
C        3.3060200      -0.1802900       0.0544700
H        0.1606600       1.8318800       3.8345700
H        0.1116700       2.6194700       2.2374200
H        1.6674100       2.0374900       2.9025900
H       -0.7625400      -1.2335100       2.3972800
H       -1.3263700       0.2445400       3.4071600
H       -3.2473900       1.4569500       0.8965400
H       -3.8715100       0.0087300      -1.3281800
H       -3.8638400       1.7764300      -1.5211700
H       -1.9883000      -0.1051400      -2.8419100
H       -1.9826400       1.6695500      -2.9452700
H        0.1664900       1.1455300      -1.7335800
H       -1.6218900       2.8853200      -0.7230500
H       -0.6783200       2.1156400       0.5883800
H        1.1941000      -1.1047200       1.2424200
H        1.5884400       2.7119400       0.6672500
H        3.4450200       3.6391100      -0.6239500
H        5.2386700       2.1570700      -1.5351400
H        5.1252200      -0.3061300      -1.1013000
H        3.2721200      -1.2511300       0.2336800
