24
dipolar_001513 reactant_1 @ TS geom
C       -1.5687300      -2.9895200      -2.1791700
N       -1.4645900      -1.8633700      -1.2683400
C       -0.7216500      -1.9251800      -0.1465900
O       -0.2408500      -2.9870800       0.2743200
C       -0.4300500      -0.6564400       0.5922100
C       -0.2022400      -0.8325500       2.1165700
C       -1.5716200      -1.2570900       2.6953700
C       -2.3264700      -0.1512500       2.6523100
C       -1.4056800       0.9375700       2.0645000
O       -0.1255900       0.5374600       2.5573000
C       -1.2019100       0.5972600       0.5488000
O       -2.2253200       0.6699600      -0.3266800
C       -3.0375400       1.8531600      -0.2961600
H       -2.3456500      -2.7893900      -2.9239000
H       -1.7953800      -3.9231900      -1.6584700
H       -0.6064700      -3.1545100      -2.7436600
H       -1.8207100      -0.9756800      -1.5507800
H        0.6427100      -1.4266200       2.4333700
H       -1.8558000      -2.2605800       3.1297400
H       -3.3893800      -0.0007200       3.0274400
H       -1.6573700       1.9672000       2.2614600
H       -2.3694500       2.7376400      -0.2425400
H       -3.6220500       1.8725000      -1.2110500
H       -3.6961600       1.8456100       0.5844400
