24
dipolar_001513 reactant_1 (FRAG1 relaxed, reordered to d) type=dipolarophile
C       -2.3684500       0.0975300      -1.1510900
N        2.4110100       0.2544300       0.1063100
C       -1.7307600      -1.0272100      -1.4896000
O       -1.9679400      -1.0639000       0.7908700
C        0.1339900      -0.4816400       0.0800300
C       -1.0027200      -1.4825900      -0.2045700
C       -2.0360500       0.2973200       0.3450800
C       -0.5264500       0.6558500       0.4107500
C        1.5467400      -0.7566500      -0.1676600
O        1.9188700      -1.8642200      -0.6001700
C        3.8405100       0.1630400      -0.0938500
O       -0.0061500       1.8561800       0.6453800
C       -0.8776500       2.9283600       1.0343000
H       -1.6433600       3.1042500       0.2646600
H       -2.9525500       0.7856200      -1.7603600
H       -1.6547800      -1.5169400      -2.4597900
H        2.0209700       1.1352500       0.4271100
H       -0.7457300      -2.5427000      -0.1162300
H       -2.7232900       0.9018700       0.9445700
H       -1.3541200       2.7071600       2.0008000
H        4.3870000       0.4015700       0.8325400
H        4.0913300      -0.8608400      -0.3949100
H       -0.2413400       3.8157700       1.1300200
H        4.1850600       0.8534700      -0.8816700
