22
dipolar_001513 reactant_2 (FRAG2 relaxed, reordered to d) type=dipole
N       -1.9323300       0.2693600       0.0772900
C       -2.8243100      -1.9087100       0.6067300
C       -1.7580500      -0.8851500       0.8427900
O       -0.8782500      -1.0057700       1.6865400
N       -0.9478500       1.0901000      -0.1082900
C        0.8523000      -0.5859600      -0.4746600
C        0.3597500       0.7867600      -0.2089500
C        1.2981800       1.8490400      -0.2322600
N        2.0826600       2.7103600      -0.2427500
C        2.8021900      -1.9073100      -0.5928700
O        2.1667300      -0.6565600      -0.2773800
O        0.1676900      -1.5049300      -0.8748900
C       -1.3484100       2.5109100      -0.2339700
H       -3.8112600      -1.4396400       0.4929600
H       -2.4389400       2.5295000      -0.3007000
H       -2.5877100      -2.4243200      -0.3399400
H       -0.8888100       2.9512500      -1.1262600
H        2.6778600      -2.1377000      -1.6604800
H        2.3690500      -2.7150400       0.0135900
H        3.8621300      -1.7721400      -0.3514300
H       -1.0143900       3.0436800       0.6671800
H       -2.8313300      -2.6427800       1.4223500
