46
dipolar_001513 TS complex (tags stripped)
C       -1.5687300      -2.9895200      -2.1791700
N       -1.4645900      -1.8633700      -1.2683400
C       -0.7216500      -1.9251800      -0.1465900
O       -0.2408500      -2.9870800       0.2743200
C       -0.4300500      -0.6564400       0.5922100
C       -0.2022400      -0.8325500       2.1165700
C       -1.5716200      -1.2570900       2.6953700
C       -2.3264700      -0.1512500       2.6523100
C       -1.4056800       0.9375700       2.0645000
O       -0.1255900       0.5374600       2.5573000
C       -1.2019100       0.5972600       0.5488000
O       -2.2253200       0.6699600      -0.3266800
C       -3.0375400       1.8531600      -0.2961600
N        0.0563500       1.8269800      -0.0581600
C        0.2435700       3.1700100       0.1470100
C        1.4367600       3.8306500      -0.5286200
O       -0.5278100       3.8209000       0.8724400
N        0.7554800       1.1917200      -1.0479700
C        0.2602800       1.3477100      -2.4233000
C        1.2916100       0.0307600      -0.5429200
C        2.1321700       0.1878200       0.6208300
N        2.8222900       0.2796900       1.5535100
C        1.6857400      -1.0864700      -1.4748900
O        1.3137600      -1.1970800      -2.6182300
O        2.4445300      -1.9728500      -0.8369400
C        2.7339200      -3.1966900      -1.5352700
H       -2.3456500      -2.7893900      -2.9239000
H       -1.7953800      -3.9231900      -1.6584700
H       -0.6064700      -3.1545100      -2.7436600
H       -1.8207100      -0.9756800      -1.5507800
H        0.6427100      -1.4266200       2.4333700
H       -1.8558000      -2.2605800       3.1297400
H       -3.3893800      -0.0007200       3.0274400
H       -1.6573700       1.9672000       2.2614600
H       -2.3694500       2.7376400      -0.2425400
H       -3.6220500       1.8725000      -1.2110500
H       -3.6961600       1.8456100       0.5844400
H        1.3021100       3.9458900      -1.6621400
H        2.3926600       3.3344400      -0.3968800
H        1.5559900       4.9145600      -0.1799500
H        1.1020800       1.3216800      -3.1299400
H       -0.2071100       2.3595200      -2.4666000
H       -0.4676500       0.6015300      -2.6609100
H        1.7833000      -3.7374300      -1.7047200
H        3.2250500      -3.0037400      -2.4979300
H        3.3785600      -3.7623200      -0.8694100
