23
dipolar_000648 reactant_1 @ TS geom
C       -2.2144000      -2.0580100       1.7262100
C       -1.4704200      -1.1198300       0.7773400
C       -2.3727300       0.0326800       0.3168300
C       -2.6162100       1.0966200       1.1946200
C       -3.4226700       2.1680100       0.8147400
C       -4.0100100       2.1924200      -0.4545700
C       -3.8067000       1.1194600      -1.3261500
C       -3.0055800       0.0371300      -0.9399600
N       -0.9261600      -1.8525400      -0.3427900
C        0.1372100      -1.1479100      -0.9432800
C        1.0978000      -2.0056100      -1.6084500
N        1.9360200      -2.6643400      -2.0684400
C       -0.1456200       0.0471300      -1.7275700
N       -0.1955700       1.0512400      -2.3090500
H       -3.1932700      -2.4657700       1.3209600
H       -2.4753900      -1.4986100       2.6228500
H       -1.5869400      -2.9193300       1.9905800
H       -2.1721100       1.0613900       2.1809200
H       -3.5699800       2.9801300       1.5190000
H       -4.6241400       3.0512500      -0.7434100
H       -4.2824600       1.1473400      -2.3233400
H       -2.8797100      -0.7830500      -1.6595700
H       -0.6458400      -2.7984500      -0.0557800
