15
dipolar_000648 reactant_2 (FRAG2 relaxed, reordered to d) type=dipolarophile
C        0.8798300      -0.3756600       0.0393100
C       -0.4268300       0.1797300      -0.0203700
C       -0.7951200       1.0064900      -1.1038200
C       -2.0776600       1.5475000      -1.1549700
C       -2.9987500       1.2736800      -0.1373300
C       -2.6377200       0.4547000       0.9387600
C       -1.3590100      -0.0936900       1.0041200
C        2.0040400      -0.8514800       0.0914000
C        3.2629800      -1.3838900       0.1503700
N        4.3387500      -1.8387600       0.2009800
H       -0.0707000       1.2144300      -1.8928400
H       -2.3615900       2.1867000      -1.9935800
H       -4.0031700       1.7004300      -0.1831500
H       -3.3579300       0.2426900       1.7317000
H       -1.0687100      -0.7331800       1.8392500
