24
dipolar_002058 reactant_2 (FRAG2 relaxed, reordered to d) type=dipole
C        1.9967900      -0.4397300       0.7971300
C        4.3488100       0.3555700       0.4235000
C        2.9395100       0.6594600       0.8534800
O        2.5933000       1.7360000       1.3455100
N        1.1273800      -0.7476600      -0.0010100
C        0.1058100      -1.0586700      -0.7125800
C        0.2418100      -2.0897700      -1.7965200
C       -1.1749500      -0.3890400      -0.4252600
C       -1.2460100       0.6891900       0.4829900
C       -2.4655900       1.3042700       0.7574700
C       -3.6378400       0.8658000       0.1289600
C       -3.5764200      -0.1944000      -0.7799700
C       -2.3582600      -0.8176500      -1.0582400
H        4.8599700       1.2956700       0.1722500
H        4.8853600      -0.1243100       1.2593400
H        4.3689800      -0.3375400      -0.4314200
H       -0.3888600      -2.9675700      -1.5794000
H       -2.3318800      -1.6474800      -1.7655200
H       -0.0840200      -1.6826600      -2.7668200
H       -0.3358400       1.0571600       0.9614800
H       -2.5013400       2.1386800       1.4619100
H       -4.5918000       1.3530700       0.3430200
H       -4.4845000      -0.5426400      -1.2778000
H        1.2841000      -2.4225800      -1.8837200
