51
dipolar_002058 TS complex (tags stripped)
C      -10.1838900      -3.2942800      -3.8745000
N       -9.2735100      -3.8532300      -2.8934400
C       -8.1252200      -3.2661100      -2.5445500
O       -7.6931000      -2.2214700      -3.0370000
C       -7.2415700      -4.0227900      -1.5229300
Cl      -8.2673900      -5.0032400      -0.3452900
C       -6.2568600      -5.0071000      -2.2190300
C       -5.2913000      -4.4138400      -3.2657900
C       -4.3309000      -3.2424000      -2.9503500
C       -3.4557100      -3.3129000      -1.6745700
C       -3.9326200      -2.3520600      -0.5858700
F       -3.2243500      -2.5469100       0.5770000
F       -3.6700300      -1.0543300      -0.9555900
C       -5.3710700      -2.5782500      -0.4102200
C       -6.3765200      -3.1274200      -0.7802600
C       -8.4200600      -1.5297000       0.4129200
C       -9.8300400      -1.6652500       0.3056000
C      -10.4421100      -0.9784600      -0.8947800
O      -10.4887900      -2.3722700       1.0889800
N       -7.4955000      -0.8649300       0.8532400
C       -6.4372600      -0.2067100       1.1718600
C       -5.7364100      -0.5230300       2.4645500
C       -5.9017100       0.7638100       0.2043200
C       -6.4529300       0.8952700      -1.0884800
C       -5.9103100       1.7971600      -2.0021300
C       -4.8100600       2.5890700      -1.6493300
C       -4.2536000       2.4620900      -0.3728900
C       -4.7902600       1.5582700       0.5464400
H      -10.9974000      -2.7348400      -3.4029400
H      -10.6338600      -4.1261500      -4.4645400
H       -9.6347200      -2.6444000      -4.5540100
H       -9.5749000      -4.6643100      -2.3527800
H       -6.8390300      -5.7721800      -2.6338400
H       -5.6682100      -5.4131100      -1.3556400
H       -5.8974800      -4.1082100      -4.1308000
H       -4.6966700      -5.2595900      -3.5653800
H       -3.6621400      -3.1553500      -3.7933800
H       -4.9131300      -2.2813600      -2.9389000
H       -3.5361100      -4.3186100      -1.2052400
H       -2.4496200      -3.0658600      -1.8376600
H      -11.3531000      -1.4572900      -1.1434100
H       -9.7301700      -0.9648200      -1.7672200
H      -10.5746000       0.0572300      -0.5797300
H       -6.1843600      -1.4136900       2.9348800
H       -4.6435200      -0.8128500       2.2588900
H       -5.7398200       0.3103400       3.0983100
H       -7.2833700       0.2586500      -1.4048100
H       -6.3625200       1.9082200      -2.9943900
H       -4.4114700       3.3287000      -2.3490500
H       -3.4010600       3.0774500      -0.0803900
H       -4.3150900       1.4304100       1.5163600
