25
dipolar_001504 reactant_1 (FRAG1 relaxed, reordered to d) type=dipolarophile
C       -0.3625100      -1.8845900       0.3021500
N        2.2889100       0.8291500      -0.0897800
C        0.2732300      -0.4803800       0.1876200
O       -1.3722700      -1.6168600       1.2866900
C       -0.7599400       0.3810600       0.3561100
C       -0.8423800       1.8456100       0.2308600
C        1.6948600      -0.3652400      -0.2268000
C       -2.2142600       2.4287100       0.0531100
O        0.1563000       2.5664500       0.2755500
C       -2.2569500      -1.2425800      -0.7995900
O        2.2735200      -1.3723600      -0.6685400
C       -1.2294900      -2.0809300      -0.9601800
C       -1.9924800      -0.5500700       0.5560700
C        3.6567200       1.0382700      -0.5144200
H        0.3119400      -2.6955600       0.5909600
H       -0.9733100      -2.7293900      -1.7968000
H        4.3297300       0.3093900      -0.0371600
H        1.6948000       1.6225300       0.1752600
H        3.9688200       2.0502300      -0.2285100
H       -2.1427700       3.5026700      -0.1597600
H       -2.7521800       1.9120600      -0.7583300
H       -2.8005500       2.2733900       0.9742500
H       -3.0875300      -1.0133800      -1.4659000
H       -2.8501800      -0.1262900       1.0867700
H        3.7668000       0.9283900      -1.6066400
