21
dipolar_001504 reactant_2 (FRAG2 relaxed, reordered to d) type=dipole
C       -0.0974700       0.0081100       0.0032800
C        0.1192300       1.2526000      -0.6241600
O        1.5451400       1.2623600      -0.8842600
O       -0.5430800       2.2164200      -0.9597000
C        2.0788900       0.1309500      -0.4440800
C       -1.3259600      -0.5472500       0.5018900
O       -1.4554600      -1.6357100       1.0536000
O       -2.3702400       0.2862800       0.2954100
C        1.4030800      -1.9600000       0.6631800
C       -3.6442700      -0.1598300       0.7673100
N        1.1575600      -0.6421200       0.0853300
C        3.5285400      -0.1238400      -0.5783500
H        3.9964800       0.7371600      -1.0700600
H        3.7102600      -1.0279700      -1.1798200
H        3.9890000      -0.2720300       0.4107000
H        1.1194500      -1.9557900       1.7221900
H        0.8039600      -2.7098500       0.1337500
H       -3.6261400      -0.3209800       1.8556100
H        2.4670100      -2.1979700       0.5647600
H       -3.9431800      -1.0945400       0.2696500
H       -4.3536300       0.6390100       0.5195200
