46
dipolar_001504 TS complex (tags stripped)
C        5.9157600      -0.8721200       0.6892200
N        4.6949100      -0.2687600       0.2079600
C        3.5713600      -0.9851800       0.0699000
O        3.4939000      -2.2031700       0.3067300
C        2.3727600      -0.2630100      -0.4109900
C        1.9414500       1.0223300      -0.4170900
C        2.5669600       2.2622700       0.0394600
C        1.6528400       3.4236000       0.3155900
O        3.7899100       2.3618700       0.1873700
C        0.4280200       0.9054100      -0.7689200
O        0.4678100      -0.2061600      -1.6641500
C        1.1256000      -1.0992700      -0.7645300
C        0.3233000      -0.9300800       0.5277900
C       -0.1492100       0.2606700       0.5009600
C       -2.8183800      -0.2393200       0.0663100
C       -3.2802800       0.9646800       0.6947300
O       -3.6595100       1.0878700       1.8585700
O       -3.2621800       2.0096900      -0.1675700
C       -3.7815200       3.2506300       0.3169400
C       -2.4220700      -0.4091500      -1.2686100
O       -2.4978800       0.2194300      -2.3166100
O       -1.8395200      -1.7306500      -1.2869500
C       -1.9214600      -2.2678400      -0.0860100
C       -1.3425100      -3.6186000       0.1520000
N       -2.4624000      -1.4184000       0.7578500
C       -2.5475700      -1.6049200       2.2054900
H        5.8203700      -1.2031400       1.7342800
H        6.1765700      -1.7514000       0.0801400
H        6.7209800      -0.1350700       0.6175800
H        4.6062500       0.7479000       0.1023100
H        2.2238300       4.2592700       0.7384800
H        1.1735200       3.7423100      -0.6262600
H        0.8384500       3.1320800       1.0009800
H       -0.0663600       1.7781000      -1.2178400
H        1.2919800      -2.0906000      -1.2184400
H        0.3256600      -1.6664700       1.3433000
H       -0.6301600       0.8446900       1.2978400
H       -3.7113600       3.9542900      -0.5245900
H       -4.8333200       3.1413100       0.6245100
H       -3.1913500       3.6207300       1.1659000
H       -0.5218500      -3.8450300      -0.5517000
H       -0.9847600      -3.7880100       1.1718400
H       -2.1947800      -4.2476800      -0.0685300
H       -3.5193900      -1.2751100       2.5715800
H       -2.3939500      -2.6571800       2.4421400
H       -1.7599500      -0.9981200       2.7024500
