15
dipolar_001911 reactant_2 @ TS geom
C       -0.0830000       1.7020000       0.0128000
C        0.0577600       2.3954400      -1.3658600
O        1.1508700       3.3262500      -1.1497900
C        2.0824600       2.3458700      -0.6704300
C        2.0474400       1.3476600      -1.8343500
C        3.1059000       0.5107400      -2.2392500
N        4.0009100      -0.1675800      -2.5502700
C        0.7674800       1.3831400      -2.2808700
C        0.1919200       0.6272000      -3.3247200
N       -0.2616800       0.0579200      -4.2331200
C        1.3054200       1.6312900       0.5088200
H       -0.9611300       2.0512800       0.6116200
H       -0.8182300       2.9138800      -1.8227600
H        3.0609800       2.8148700      -0.4494200
H        1.5656500       2.0899800       1.5201300
