34
dipolar_001911 reactant_1 (FRAG1 relaxed, reordered to d) type=dipole
C       -0.9002400      -2.5581600      -0.3796600
O        3.4471200      -1.3587100      -0.0267900
C        3.2460500      -0.1486800      -0.2108100
O        4.2654300       0.7241500      -0.4463400
C        1.9735900       0.4819900      -0.2063500
N        0.9070400      -0.3392600      -0.0167300
C       -0.4009300      -0.1299200       0.0496100
C       -1.2869700      -1.2977500       0.1280600
C       -2.5558300      -1.1874700       0.7374900
C       -1.7415400      -3.6639700      -0.2629200
C       -2.9937600      -3.5402500       0.3486000
C       -3.3955900      -2.2951700       0.8445000
C       -0.9385700       1.2444800       0.0293400
C       -0.4065100       2.2490700       0.8601900
C       -0.9435200       3.5366400       0.8483100
C       -2.0133900       3.8466900       0.0017100
C       -2.5493900       2.8566400      -0.8280600
C       -2.0210700       1.5651500      -0.8117700
C        5.5801700       0.1723300      -0.4713300
H        0.0536500      -2.6749200      -0.8995600
H        1.2097200      -1.3163500       0.0816900
H       -1.4222600      -4.6267800      -0.6686500
H        1.8334200       1.5443600      -0.3751500
H        0.4214600       2.0162200       1.5322300
H       -2.8764700      -0.2279200       1.1451500
H       -3.6542700      -4.4062300       0.4315200
H       -4.3699600      -2.1861300       1.3265700
H       -2.4445500       0.7952800      -1.4594800
H       -3.3839400       3.0911300      -1.4928700
H       -0.5265400       4.3018000       1.5072300
H       -2.4291000       4.8568600      -0.0095100
H        6.2609500       1.0110600      -0.6641900
H        5.6826600      -0.5787300      -1.2701600
H        5.8341200      -0.2973500       0.4917200
