%chk=ts_0.chk
%mem=2GB
%nprocshared=2
#P AM1 Freq NoSymm

dipolar_000009 AM1 SPE on TS complex (n=23)

0 1
 C        2.3197200      -0.2776100       1.5018600
 C        1.5038300       0.0101300       0.2401300
 C        2.3085700       0.4480000      -0.8935000
 N        2.9156700       0.9047700      -1.7784500
 C        0.2016000       1.5725200       0.5553800
 C       -1.1215300       0.9925500       0.4058700
 C       -1.9746100       1.4706600      -0.7795400
 C       -1.9497600       0.8031100       1.6857000
 C       -0.6341600      -0.8001000      -0.0895000
 C       -1.5645200      -1.8669100      -0.4296500
 N       -2.4458400      -2.5883300      -0.6694400
 N        0.6364100      -1.0768300      -0.1299900
 H        2.8902600       0.6215400       1.7493300
 H        1.6206000      -0.5137700       2.3139200
 H        3.0679100      -1.1305300       1.4537200
 H        0.5447000       2.2986700      -0.2257400
 H        0.5575100       1.8290400       1.5758000
 H       -2.7199300       0.6899400      -1.0010100
 H       -2.5653700       2.4137000      -0.6093300
 H       -1.3548500       1.6352300      -1.6648900
 H       -1.3061100       0.5077300       2.5193700
 H       -2.6878400       0.0108100       1.4991700
 H       -2.5387500       1.6998400       2.0238400

