%chk=ts_106.chk
%mem=2GB
%nprocshared=2
#P AM1 Freq NoSymm

dipolar_001399 AM1 SPE on TS complex (n=51)

0 1
 C        2.5042400      -3.4072500       0.5825100
 N        1.4913100      -2.4315600       0.2645800
 C        1.7265300      -1.4110900      -0.5920800
 O        2.8489000      -1.2879400      -1.1317800
 C        0.6082800      -0.5320400      -0.9680600
 C        0.7348900       0.1548600      -2.3501400
 C        0.0586500      -0.8393000      -3.3255700
 C       -1.2429800      -0.7708300      -3.0252700
 C       -1.3237500       0.2742400      -1.8846700
 O       -0.2754000       1.1608900      -2.2596200
 C       -0.6954500      -0.4362600      -0.6386700
 C       -1.5768800      -1.0660900       0.3453800
 C       -2.9306700      -1.2713300      -0.0131500
 C       -3.8041300      -1.9704800       0.8175000
 C       -3.3629100      -2.4728500       2.0458700
 C       -2.0423500      -2.2424700       2.4401900
 C       -1.1667700      -1.5407800       1.6119300
 C       -0.6069500       2.1484500       0.8018400
 C       -1.8151000       2.7872300       0.1540600
 C       -0.8232400       1.6011400       2.0605300
 N       -1.1532900       1.1863500       3.1179400
 N        0.6740000       2.3399700       0.2561200
 C        0.7870200       3.4752600      -0.6941600
 C        1.7849000       1.6656000       0.5161400
 C        3.0360900       1.9253100      -0.2585200
 C        1.8755300       0.7051800       1.6633600
 H        2.7789500      -3.9738100      -0.3254100
 H        2.0689100      -4.0919600       1.3107300
 H        3.3827600      -2.9265000       0.9805300
 H        0.5417300      -2.5178100       0.6368300
 H        1.7163600       0.6019200      -2.6293900
 H        0.6201800      -1.5310600      -3.9146900
 H       -2.0430400      -1.4023300      -3.3065000
 H       -2.2699300       0.8148900      -1.7515900
 H       -3.2862400      -0.8837700      -0.9660400
 H       -4.8175000      -2.1284600       0.4769800
 H       -4.0403400      -3.0393700       2.6738300
 H       -1.6841900      -2.6161300       3.4015900
 H       -0.1552300      -1.3456700       1.9866000
 H       -2.7276600       2.1721400       0.3872600
 H       -1.7682000       2.8214800      -0.9557700
 H       -1.9752300       3.7742600       0.5354900
 H       -0.0279000       4.1723100      -0.4799500
 H        1.7282700       3.9840800      -0.4591100
 H        0.7529600       3.1536900      -1.7186000
 H        3.5816300       2.6403300       0.2343700
 H        3.6221000       0.9541600      -0.3299500
 H        2.8423500       2.2004300      -1.3267400
 H        2.1014000       1.3419800       2.5193500
 H        2.7341200       0.0072100       1.5285000
 H        0.9979800       0.1054800       1.8989900

