%chk=ts_122.chk
%mem=2GB
%nprocshared=2
#P AM1 Freq NoSymm

dipolar_001545 AM1 SPE on TS complex (n=49)

0 1
 C        0.2943300      -0.0236500      -2.8561700
 N        0.1974200       0.6955700      -1.5830000
 C        1.3165800       1.4764400      -1.1901600
 C        2.3252000       1.7916700      -2.2902500
 C        1.0297500       2.7097900      -0.4493100
 N        1.0133800       3.6883200       0.1823400
 C        2.0426000       0.5505000       0.3331700
 C        2.9988900      -0.5860100      -0.1325600
 C        3.6108900      -1.2608200       1.1077100
 C        2.5911300      -1.9482800       1.6636700
 C        2.5892500      -2.7689000       2.8175400
 N        2.5569400      -3.4642000       3.7522000
 C        1.3585000      -1.6514800       0.7461200
 O        2.0373200      -1.5900600      -0.5249400
 C        0.9288900      -0.1804600       0.9049300
 C       -0.6633800       0.2982800      -0.5393200
 C       -1.5320900      -0.9143700      -0.7677600
 C       -0.9814100      -2.1422100      -1.1948500
 C       -1.7599800      -3.2944600      -1.2925000
 C       -3.1230700      -3.2592100      -0.9815300
 C       -3.6984200      -2.0474900      -0.5937600
 C       -2.9167900      -0.8922000      -0.4928400
 C       -1.4197800       1.4399700       0.1104700
 C       -1.8593000       2.5471700      -0.6414600
 C       -2.5887700       3.5791500      -0.0399000
 C       -2.9191200       3.5107700       1.3162900
 C       -2.5332300       2.3888400       2.0592200
 C       -1.7984200       1.3673800       1.4594000
 H        0.5069100       0.6681300      -3.6656800
 H        1.1189600      -0.7854800      -2.8256400
 H       -0.6363200      -0.5469200      -3.0783400
 H        2.7470100       0.8735000      -2.6899000
 H        1.9144700       2.3618800      -3.2200300
 H        3.0922500       2.4211000      -1.8876200
 H        2.5422400       1.4217400       0.8986100
 H        3.7000900      -0.3304500      -0.9159900
 H        4.6767500      -1.2339000       1.4494000
 H        0.5806800      -2.3994900       0.7786400
 H        0.4581300       0.1323000       1.8884100
 H        0.0699100      -2.1919200      -1.4387000
 H       -1.2833400      -4.2274900      -1.5920600
 H       -3.7220600      -4.1766400      -1.0380100
 H       -4.7714100      -2.0109500      -0.3552500
 H       -3.4213400       0.0339400      -0.2077200
 H       -1.6277300       2.6583800      -1.7094800
 H       -2.9095400       4.4705400      -0.6142300
 H       -3.4780600       4.3152600       1.8143300
 H       -2.7900500       2.2926700       3.1095700
 H       -1.5293200       0.4779800       2.0063900

