%chk=ts_133.chk
%mem=2GB
%nprocshared=2
#P AM1 Freq NoSymm

dipolar_001736 AM1 SPE on TS complex (n=48)

0 1
 C       -1.6825000      -3.6021000       1.7568500
 N       -1.2988900      -3.1389900       0.4421200
 C       -0.0272500      -3.2307500      -0.0078000
 O        0.8525700      -3.8036500       0.6522000
 C        0.2463000      -2.7280200      -1.3866800
 C        1.3876500      -3.3345900      -2.1363800
 N       -0.4086100      -1.7109200      -1.9283500
 C       -1.4170200      -0.8893100      -1.5230200
 C       -1.8149500       0.1258700      -2.4211500
 C       -2.9539200       1.0216800      -1.9839100
 O       -1.3065900       0.2495000      -3.5711400
 C        0.6519100       0.1667100       0.1732700
 C        1.5188700      -0.6508300       0.0834400
 C        2.8099100      -1.3114700       0.2527600
 C        3.6954100      -0.2272400       0.9025800
 C        3.3051600       0.2094000       2.3255200
 C        1.8812000       0.7315200       2.6232900
 C        1.3393300       1.8426500       1.6878200
 C        0.1460400       1.3412700       0.8422800
 Br      -0.3407300       2.7995200      -0.4818500
 C       -1.1412300       1.1214100       1.6586600
 C       -1.5096400       2.1855800       2.6494700
 O       -1.7853400       0.0966400       1.5412300
 H       -1.1204100      -3.0886400       2.5324600
 H       -1.5230200      -4.6908500       1.8627000
 H       -2.7548900      -3.3950500       1.8778700
 H       -1.9903100      -2.7367800      -0.1689100
 H        1.7681600      -2.6542900      -2.9156400
 H        2.2531800      -3.5529800      -1.4474700
 H        1.0338000      -4.2401800      -2.5303000
 H       -0.1445300      -1.4713800      -2.8801500
 H       -1.7495800      -0.9059700      -0.4598700
 H       -2.8704800       2.0265800      -2.4215100
 H       -3.0403100       1.1125800      -0.8790100
 H       -3.8760100       0.5583300      -2.3519900
 H        3.2311500      -1.6630000      -0.6765400
 H        2.6803200      -2.1848900       0.9127300
 H        3.6532400       0.6600400       0.2232600
 H        4.6935600      -0.5898100       0.9002000
 H        4.0102800       0.9989100       2.6098300
 H        3.4938000      -0.6396700       3.0018000
 H        1.1764000      -0.1423300       2.6230600
 H        1.8613500       1.1094800       3.6379200
 H        2.1243000       2.1178500       0.9482900
 H        1.0415100       2.7044000       2.2038800
 H       -1.2328100       3.1896000       2.2896600
 H       -2.5604500       2.1154300       2.8730600
 H       -0.9195800       1.9857700       3.5605500

