%chk=ts_131.chk
%mem=2GB
%nprocshared=2
#P AM1 Freq NoSymm

dipolar_001703 AM1 SPE on TS complex (n=48)

0 1
 C        3.4310700      -0.7091900      -2.8817400
 N        2.9473800      -1.1293100      -1.5815800
 C        1.6348600      -1.1553800      -1.3044900
 O        0.7651700      -0.8435800      -2.1410700
 C        1.2558000      -1.5629400       0.0694300
 C        2.1800800      -1.7900100       1.1852300
 C        1.6058100      -2.1989500       2.5147900
 O        3.3997000      -1.6694200       1.0273400
 O       -0.0115400      -1.4926300       0.4518300
 C       -1.1612600      -1.2344900      -0.0912700
 C       -1.4913700      -1.3498000      -1.5506200
 C       -1.2602200      -2.7278000      -2.1135400
 O       -2.1595700      -0.5085900      -2.1176900
 C       -2.2629600      -1.0459500       0.8870200
 C       -2.0364200      -1.4964300       2.3035600
 O       -3.3167500      -0.5486800       0.5106000
 C       -0.1287800       1.6008800       0.2725200
 C       -0.8775200       1.9263000      -0.9487000
 O       -0.4128100       1.9563600      -2.0792500
 O       -2.1419400       2.2771500      -0.6638500
 C       -2.9501900       2.7264500      -1.7542400
 C       -0.6450000       1.7749000       1.7232300
 C       -0.0571300       3.1256300       2.2065400
 C        1.2559100       2.9088000       2.3175700
 C        1.4500400       1.4215300       1.9094900
 O        0.2266100       0.8594500       2.4057100
 C        1.1775100       1.3930800       0.3931500
 H        4.5245400      -0.8790600      -2.9246600
 H        3.2223700       0.3347900      -3.1061300
 H        2.9649800      -1.3329800      -3.6736600
 H        3.5921100      -1.2525800      -0.7920800
 H        0.9703300      -3.0829200       2.3577800
 H        2.4358600      -2.4423400       3.1857800
 H        0.9871800      -1.4065700       2.9325000
 H       -0.4458000      -3.2262300      -1.5658600
 H       -1.0996600      -2.6541700      -3.1447900
 H       -2.2027600      -3.2559000      -1.8714300
 H       -2.9912500      -1.4499800       2.8333900
 H       -1.2855600      -0.8818500       2.7930200
 H       -1.6608300      -2.5357300       2.2820300
 H       -3.0659900       1.9485200      -2.4932200
 H       -3.9036500       3.0204900      -1.3137500
 H       -2.4629700       3.6173300      -2.2150700
 H       -1.7167400       1.5390900       1.9430600
 H       -0.6347900       4.0124400       2.2236300
 H        2.0573600       3.5725300       2.4443800
 H        2.3247400       0.8725500       2.3009900
 H        1.9166700       1.2816100      -0.3829400

