%chk=ts_116.chk
%mem=2GB
%nprocshared=2
#P AM1 Freq NoSymm

dipolar_001512 AM1 SPE on TS complex (n=46)

0 1
 C        2.9261600      -2.1827300       1.8469800
 N        1.9676400      -1.4687700       1.0309300
 C        2.3222600      -0.3778500       0.3260400
 O        3.5040400       0.0524600       0.2922300
 C        1.2872600       0.2830300      -0.4736600
 C        1.4169900       1.7670100      -0.8747800
 C        2.2235400       1.7848800      -2.1982400
 C        1.4006000       1.2639500      -3.1148600
 C        0.0957800       0.9508800      -2.3352000
 O        0.0881500       2.0075700      -1.3759000
 C        0.4795000      -0.2334700      -1.4046800
 O        0.2335400      -1.5395600      -1.6566700
 C       -0.5384600      -1.8635100      -2.8058500
 C       -1.9495300       0.0352300       0.2692400
 C       -2.8892300       0.4317100      -0.7066300
 N       -3.6498900       0.7394100      -1.5380500
 C       -1.7026500      -1.3955400       0.5059400
 O       -0.9899200      -1.8791500       1.3716400
 O       -2.4140300      -2.1420000      -0.3469900
 C       -2.2532300      -3.5662300      -0.2365000
 N       -1.2831600       0.9895700       0.9829300
 C       -1.8174300       2.3696500       0.9996600
 N       -0.1939500       0.6719400       1.5502400
 C        0.4204000       1.3245500       2.6044800
 C       -0.4159200       1.4510300       3.8503400
 O        1.6026600       1.6061300       2.5513300
 H        3.8049300      -2.4343700       1.2170700
 H        3.2803200      -1.5931800       2.6970300
 H        2.4756500      -3.1106900       2.2002600
 H        0.9554700      -1.6168300       1.2202100
 H        1.6849300       2.5220800      -0.0825400
 H        3.2668300       2.0141600      -2.2316600
 H        1.5826300       0.9357400      -4.0993700
 H       -0.8566100       0.9176200      -2.8835400
 H       -1.5224800      -1.4463400      -2.7236200
 H        0.0000100      -1.5029100      -3.6886500
 H       -0.5488700      -2.9526100      -2.7839600
 H       -2.8267600      -4.0120100      -1.0524100
 H       -2.6472300      -3.9222600       0.7373700
 H       -1.1910700      -3.8569100      -0.3118100
 H       -1.0593600       3.0326400       1.3937400
 H       -2.0276500       2.6707100      -0.0560400
 H       -2.7371000       2.3903200       1.5716800
 H       -1.0580000       0.5300300       3.8742500
 H        0.2435000       1.5047700       4.6581800
 H       -1.0397500       2.3030900       3.7017700

