%chk=ts_19.chk
%mem=2GB
%nprocshared=2
#P AM1 Freq NoSymm

dipolar_000205 AM1 SPE on TS complex (n=29)

0 1
 C       -2.1945800       2.9313700      -0.3407400
 O       -0.8355100       3.2792700      -0.8324800
 C       -0.0621500       2.3475400      -1.0962200
 C        0.6832900       1.2750800      -0.9854400
 Cl       1.4581700       0.3787600      -2.2457200
 C        0.6919700       0.6034100       0.4485600
 C        1.1881600       1.5263500       1.5423800
 C        1.7832800       0.9061200       2.7830400
 O        1.0957500       2.7358100       1.3923700
 N        0.2391800      -0.5517600       0.6986400
 C       -0.4525500      -1.6502600       0.3790200
 C       -0.1001000      -2.8727500       1.1123300
 C        1.0002800      -2.7460000       2.1460300
 O       -0.6234800      -3.9693900       0.8958200
 C       -1.5276200      -1.5454200      -0.6221200
 C       -2.2798200      -2.7795500      -1.0609400
 O       -1.8368600      -0.4395600      -1.0828600
 H       -2.7162000       3.8653500      -0.1479400
 H       -2.6822600       2.3033400      -1.0661500
 H       -2.0353600       2.3749700       0.6226700
 H        2.3200900       1.7296700       3.3973400
 H        2.5462900       0.1482500       2.5502500
 H        1.0439400       0.4641100       3.4435700
 H        0.7307400      -2.0040700       2.9072800
 H        1.1801900      -3.7193000       2.6123000
 H        1.9345800      -2.3915300       1.6669300
 H       -2.8035600      -3.2588200      -0.2163400
 H       -1.5933800      -3.5433600      -1.4655000
 H       -3.0170600      -2.4988800      -1.8349900

