%chk=ts_194.chk
%mem=2GB
%nprocshared=2
#P AM1 Freq NoSymm

dipolar_002782 AM1 SPE on TS complex (n=56)

0 1
 C      -12.8659400      17.4295400      -3.9055500
 N      -13.4186200      16.7469600      -5.0645800
 C      -14.2495300      17.3749200      -5.9065600
 O      -14.4017200      18.5877200      -5.9657700
 C      -15.0435500      16.4069500      -6.8653900
 N      -15.6394100      17.1869500      -7.9429400
 C      -15.8918300      16.1383700      -8.8309900
 C      -16.6021800      16.4653700     -10.0475100
 N      -17.2130100      16.7656700     -10.9875300
 C      -14.5917600      15.3697300      -8.8348100
 O      -14.1169800      14.6211100      -9.6430900
 O      -14.0256800      15.6601100      -7.6328300
 C      -16.6695500      14.7999900      -7.5701100
 C      -16.1500800      15.2927300      -6.4486900
 C      -16.5438100      15.0149800      -4.9528700
 O      -15.3055300      14.7938200      -4.3035900
 C      -15.2361200      14.6961800      -2.8795100
 C      -17.2137900      16.3452100      -4.4377000
 F      -16.3356300      17.3578200      -4.3723000
 F      -18.2059400      16.7200900      -5.2629000
 F      -17.7451000      16.2327000      -3.2102200
 C      -17.5671600      13.8996000      -4.6497500
 C      -17.1194100      12.4541900      -4.8584400
 C      -16.8641500      12.0303600      -6.3068800
 C      -17.9531500      12.5045800      -7.2781200
 C      -17.5503300      13.7194500      -8.1832000
 C      -18.8635200      14.3253200      -8.7213000
 O      -19.7005000      13.6837800      -9.3121200
 O      -18.9738600      15.6147400      -8.4267500
 C      -20.1399400      16.3026800      -8.9022500
 C      -16.8051700      13.1627200      -9.4376100
 O      -17.0211800      13.5419200     -10.5658000
 O      -15.9142600      12.2376900      -9.1216800
 C      -15.1637200      11.6512600     -10.2040100
 H      -13.6675900      17.6909800      -3.1821600
 H      -12.1552200      16.7578300      -3.4038800
 H      -12.3518200      18.3487800      -4.1920400
 H      -13.5792700      15.7556900      -4.9882600
 H      -16.3661200      17.8281400      -7.6595100
 H      -14.1831600      14.4531600      -2.6509900
 H      -15.4852900      15.6439200      -2.3746100
 H      -15.8723700      13.8932900      -2.4786300
 H      -18.4949500      14.1147400      -5.1717000
 H      -17.8522500      13.9757900      -3.5489300
 H      -17.9163200      11.8091500      -4.4324400
 H      -16.2188900      12.2447100      -4.2594900
 H      -16.8162100      10.9249600      -6.3308600
 H      -15.8919100      12.3795800      -6.6404300
 H      -18.8730500      12.7694800      -6.7384900
 H      -18.2647300      11.6712800      -7.9615800
 H      -20.0425500      17.3275800      -8.5315200
 H      -20.1598500      16.2893200      -9.9998300
 H      -21.0467600      15.8303100      -8.5032700
 H      -14.6289400      12.4321000     -10.7611400
 H      -14.4512900      10.9615600      -9.7335400
 H      -15.8358600      11.1027300     -10.8790000

