%chk=ts_167.chk
%mem=2GB
%nprocshared=2
#P AM1 Freq NoSymm

dipolar_002345 AM1 SPE on TS complex (n=60)

0 1
 C        1.2103600       2.3720700       3.8454200
 N        1.4948600       1.2865800       2.9220300
 C        1.5103000       1.4935800       1.5827900
 O        1.5262900       2.6475800       1.1176000
 C        1.4412200       0.2861700       0.6899400
 C        2.3545600       0.2100500      -0.4772500
 C        2.6257200      -1.0469200      -1.0720500
 C        3.3577500      -1.1491300      -2.2558900
 C        3.8452800      -0.0008500      -2.8879500
 C        3.6115900       1.2478200      -2.3026600
 C        2.8848900       1.3560600      -1.1162000
 N        1.3173000      -0.9598100       1.4093400
 C        0.1258200      -1.5100500       1.3636500
 C        0.0303400      -2.7791700       2.2900700
 C        0.5854800      -4.0797000       1.7888500
 O       -0.5148100      -2.6568800       3.3627800
 C       -1.1192100      -0.9288200       0.5167800
 C       -1.3720500      -2.1261900      -0.4327800
 C       -2.5589900      -3.0100300      -0.1640500
 O       -0.5237900      -2.4762700      -1.2371000
 C       -2.3266500      -0.5859900       1.4707700
 C       -3.5135200       0.1014600       0.7317000
 C       -2.9638900       1.5214400       0.4201600
 C       -1.4954100       1.4303100       0.9381900
 C       -1.7266400       0.6072300       2.2162800
 C       -0.6908400       0.4765400       0.0154100
 C       -0.4338100       0.9693600      -1.3572200
 C       -0.4300100       2.3738500      -1.5854800
 C       -0.0513900       2.9238700      -2.8091700
 C        0.3347200       2.1015800      -3.8728100
 C        0.3356300       0.7188400      -3.6778500
 C       -0.0324100       0.1642700      -2.4506200
 H        0.1629500       2.7327300       3.7440600
 H        1.8728800       3.2324900       3.6677400
 H        1.3516300       2.0266900       4.8778800
 H        1.4551900       0.3436400       3.2829000
 H        2.2596600      -1.9586000      -0.6056100
 H        3.5320400      -2.1347000      -2.7074800
 H        4.3992000      -0.0779200      -3.8342100
 H        3.9864100       2.1547700      -2.7935000
 H        2.7185700       2.3322300      -0.6780200
 H        1.6760500      -4.0630300       1.6982300
 H        0.1815900      -4.2816100       0.7775700
 H        0.2873900      -4.9327100       2.4625000
 H       -3.5138500      -2.4923900      -0.2345500
 H       -2.4800100      -3.3946900       0.8796100
 H       -2.5229400      -3.8662200      -0.8492300
 H       -2.6240900      -1.4524100       2.0566200
 H       -3.8894700      -0.4111700      -0.1470700
 H       -4.4062600       0.1658000       1.4484300
 H       -3.0624200       1.7944300      -0.6312900
 H       -3.5217900       2.3168600       1.0042000
 H       -1.0231800       2.3987300       1.0623700
 H       -0.8065500       0.3408300       2.7364700
 H       -2.4221300       1.0763500       2.9049700
 H       -0.7144100       3.0561700      -0.7874400
 H       -0.0519000       4.0133200      -2.9325500
 H        0.6371900       2.5336600      -4.8312900
 H        0.6502900       0.0543700      -4.4888200
 H        0.0065500      -0.9086100      -2.3281700

