%chk=ts_160.chk
%mem=2GB
%nprocshared=2
#P AM1 Freq NoSymm

dipolar_002209 AM1 SPE on TS complex (n=46)

0 1
 C       -5.2550100       1.1490900      -1.0763900
 N       -4.2582100       1.0382200      -0.0429200
 C       -3.2309400       0.1725500      -0.1363700
 O       -3.1960500      -0.7408900      -0.9757000
 C       -2.2893900       0.2655300       1.0030400
 C       -2.0761200      -0.8891000       1.8928800
 O       -1.5092900      -0.7319000       2.9974900
 N       -2.5270800      -2.0847200       1.4650000
 C       -2.3537000      -3.2905200       2.2474800
 N       -1.6232100       1.3502500       1.4114800
 C       -1.3377100       2.5765900       0.9287300
 C       -1.5477800       2.9875100      -0.4515400
 O       -2.2044100       2.4236200      -1.3214600
 O       -0.9066600       4.1624300      -0.6834900
 C       -1.0688600       4.7288300      -1.9888600
 C        0.5716200       0.9892800      -0.6488900
 C        1.6518100       1.0461000       0.4571400
 O        1.0595300       0.2372900       1.4857500
 C        0.7601000      -0.8692800       0.6361400
 C        2.1624000      -1.1254800       0.0389700
 Br       2.6083900      -2.8175700      -0.6170000
 C        2.7500900       0.0829500      -0.0678100
 C        3.9338300       0.5953500      -0.7525300
 C        4.9557800      -0.3726800      -1.2761700
 O        4.0579700       1.8120800      -0.8955700
 C        0.0193700      -0.1792900      -0.5389500
 H       -5.6573200       0.1571300      -1.2892000
 H       -4.8220700       1.5779700      -1.9743300
 H       -6.0405100       1.7921900      -0.6803300
 H       -4.0991900       1.8034300       0.6100600
 H       -2.8294100      -2.1561700       0.4887300
 H       -1.3101800      -3.6314200       2.2731100
 H       -2.6841500      -3.1172700       3.2850700
 H       -2.9756800      -4.0899300       1.8150400
 H       -1.2441900       1.1779700       2.3481500
 H       -0.6220400       3.1462600       1.5027300
 H       -2.1331300       4.9471900      -2.1952400
 H       -0.6832200       4.0667500      -2.7755300
 H       -0.5001000       5.6745300      -1.9883900
 H        0.4219500       1.7728600      -1.3668100
 H        2.0023200       2.0115900       0.8582800
 H        0.3079900      -1.7122300       1.1997000
 H        5.2213000      -1.0998400      -0.4935900
 H        5.8298400       0.1795100      -1.6067200
 H        4.5290000      -0.9428400      -2.1182400
 H       -0.7655800      -0.6682200      -1.1211800

