%chk=ts_137.chk
%mem=2GB
%nprocshared=2
#P AM1 Freq NoSymm

dipolar_001785 AM1 SPE on TS complex (n=57)

0 1
 C       -0.0271300      -6.9309000       3.7121900
 N       -1.0302100      -6.5607900       2.7359400
 C       -1.8078000      -5.4504600       2.9314800
 O       -1.8008800      -4.8584700       4.0523100
 C       -2.6553700      -5.0064500       1.8519500
 C       -2.8636400      -5.7038200       0.5414500
 N       -3.2743700      -3.8350500       2.1941000
 C       -4.1115800      -2.9641300       1.6410000
 C       -4.7027900      -3.1438300       0.2712300
 C       -4.4496400      -1.7879400       2.4406800
 C       -3.6483100      -1.3461100       3.5225000
 C       -4.0229200      -0.2467400       4.2901400
 C       -5.1948600       0.4623100       3.9948500
 C       -5.9770400       0.0617600       2.9076300
 C       -5.6096100      -1.0413600       2.1370400
 C       -1.4711700      -2.2234800       0.3900900
 C       -0.8816300      -3.1891700       0.7716200
 C        0.3235000      -4.0039400       0.8177800
 F        0.7467700      -4.2515000       2.1060600
 F        0.1345600      -5.2553300       0.2541700
 C        1.4161700      -3.2651800       0.0569800
 C        0.9537400      -2.7606000      -1.3250500
 C        0.7290300      -1.2415900      -1.4581900
 C       -0.1627400      -0.4814900      -0.4626200
 C       -1.6466700      -0.9354900      -0.3052200
 C       -2.3150400      -1.1552200      -1.6714800
 C       -2.4133900       0.1208900       0.4995000
 H       -0.5027000      -7.0321200       4.7030500
 H        0.3800200      -7.9192600       3.4324100
 H        0.7970700      -6.2175700       3.7942500
 H       -0.7929400      -6.7721100       1.7631400
 H       -2.5817000      -5.1505500      -0.3846700
 H       -3.9021800      -5.9519100       0.5038000
 H       -2.2701100      -6.6256500       0.5325100
 H       -3.0410400      -3.6396200       3.1721700
 H       -4.1197500      -3.7812300      -0.4077300
 H       -5.6849000      -3.5755700       0.4115500
 H       -4.8390000      -2.1710000      -0.2557500
 H       -2.6865900      -1.8310300       3.7379500
 H       -3.3940100       0.0624100       5.1293100
 H       -5.4985600       1.3068500       4.6054000
 H       -6.8960500       0.5877200       2.6636100
 H       -6.2209800      -1.3371900       1.2851200
 H        1.6829000      -2.4075000       0.7028600
 H        2.2331700      -3.9384100       0.0048300
 H        1.7077700      -3.0465900      -2.0603800
 H        0.0286100      -3.3053500      -1.6323900
 H        0.3452500      -1.0438500      -2.4703600
 H        1.7109300      -0.7603600      -1.4035300
 H       -0.1850000       0.5436900      -0.7273600
 H        0.3013900      -0.5500200       0.5636500
 H       -2.1869600      -0.2631600      -2.2536100
 H       -3.3827500      -1.3759200      -1.5474100
 H       -1.8587700      -2.0155900      -2.2025600
 H       -1.9738200       0.2620100       1.5017900
 H       -3.4640700      -0.1470200       0.6229800
 H       -2.3435000       1.0633600      -0.0483900

