%chk=ts_187.chk
%mem=2GB
%nprocshared=2
#P AM1 Freq NoSymm

dipolar_002689 AM1 SPE on TS complex (n=61)

0 1
 C        4.5102000      -1.3117800       0.7335000
 N        3.4952400      -0.5850700       0.0038400
 C        2.3039700      -1.1446400      -0.2751700
 O        2.0411000      -2.3104700       0.0542000
 C        1.3029100      -0.3208000      -1.0153700
 C        1.7841600       0.7964500      -1.8569900
 O        2.7708900       1.4844200      -1.6087100
 O        0.9893800       1.0386200      -2.8989300
 C        1.3006300       2.1741400      -3.7235000
 N        0.1865100      -0.9694400      -1.4970100
 C       -0.7612600      -1.5457800      -0.5914300
 C       -2.0356800      -1.7656800      -1.5574000
 C       -3.0054600      -2.8778000      -1.2778200
 O       -2.0540300      -1.1769400      -2.6231000
 C       -0.3904200      -2.9825500      -0.1015700
 C        0.2037600      -3.9784900      -1.0795100
 O       -0.7696100      -3.3589400       1.0017700
 C       -1.0140200      -0.4530500       0.7651000
 C       -2.5264700      -0.0509600       0.7267300
 O       -3.2732700      -0.4327400      -0.1899000
 N       -3.0073300       0.7010000       1.7211400
 C       -4.4160100       1.0711900       1.7756700
 C       -0.7168600      -0.9047100       2.2950900
 C        0.7088900      -1.3803000       2.4767400
 C        1.4737000      -0.2836500       2.4081900
 C        0.5094600       0.8546800       2.1578700
 O       -0.6456000       0.4049400       2.9068800
 C       -0.0733800       0.7341100       0.7094800
 C       -0.2906700       1.9500900      -0.0565600
 C       -1.2663300       2.0331600      -1.0824500
 C       -1.4201800       3.1955900      -1.8360200
 C       -0.6046500       4.3074600      -1.6081500
 C        0.3778400       4.2419100      -0.6107300
 C        0.5353500       3.0891400       0.1498600
 H        4.1451800      -1.6059400       1.7344400
 H        4.8159600      -2.2324400       0.2118800
 H        5.3834300      -0.6637000       0.8552000
 H        3.6590000       0.3473000      -0.3525000
 H        1.3662000       3.0847200      -3.1060900
 H        2.2469800       2.0222500      -4.2580500
 H        0.4727200       2.2769900      -4.4424400
 H       -0.2957700      -0.4671600      -2.2680000
 H       -2.6740700      -3.7973700      -1.8327300
 H       -3.9796000      -2.5947300      -1.6985500
 H       -3.0627700      -3.1040400      -0.2353400
 H        0.9047300      -4.6913800      -0.4959300
 H       -0.5877800      -4.6526000      -1.4628700
 H        0.7750000      -3.5841100      -1.9089200
 H       -2.4054600       1.0179400       2.4671500
 H       -4.7240200       1.7039900       0.9182400
 H       -4.6474200       1.6281600       2.7034000
 H       -5.0944400       0.1776000       1.7576700
 H       -1.5225100      -1.4614000       2.8031500
 H        0.9838900      -2.4108900       2.5663700
 H        2.5571000      -0.2049600       2.4067200
 H        0.8518900       1.8703100       2.4944000
 H       -1.9114100       1.1866900      -1.2820600
 H       -2.1775500       3.2227000      -2.6183600
 H       -0.7191100       5.2101200      -2.2109100
 H        1.0425700       5.0963600      -0.4415800
 H        1.3225700       3.0623000       0.9078400

