%chk=ts_17.chk
%mem=2GB
%nprocshared=2
#P AM1 Freq NoSymm

dipolar_000172 AM1 SPE on TS complex (n=26)

0 1
 C        4.6938000       0.7426800      -0.2520800
 N        3.2798100       0.5282300      -0.5373500
 C        2.4895600      -0.1171500       0.3180300
 O        2.8540100      -0.6670200       1.3527500
 C        0.9333700      -0.0182000       0.0605400
 N        0.3335200      -1.3603100       0.3101500
 C       -0.7932700      -1.3224100      -0.3687200
 C       -1.9342000      -2.1314800      -0.1351900
 N       -2.9037600      -2.7341200       0.0727900
 C       -0.5692200      -0.4696100      -1.5862600
 O       -1.2474400      -0.3135600      -2.5586900
 O        0.6579000       0.0822900      -1.3835000
 C       -1.1234100       1.0432500       0.7317600
 C       -2.5504800       1.0015400       0.6165500
 C       -3.1679100       1.7086400      -0.5735500
 O       -3.2586800       0.3656700       1.4176700
 C        0.2210100       0.9313500       0.7619400
 F        0.9880700       1.8273200       1.5434400
 H        5.2461300      -0.2051800      -0.2189400
 H        5.1249800       1.3814800      -1.0354400
 H        4.8229500       1.2488400       0.7239500
 H        2.8882400       0.9136000      -1.3899700
 H        0.4777200      -1.7751100       1.2211900
 H       -4.2723300       1.6690600      -0.5097500
 H       -2.8506300       1.2085000      -1.5063200
 H       -2.8288800       2.7490400      -0.6272100

