%chk=ts_148.chk
%mem=2GB
%nprocshared=2
#P AM1 Freq NoSymm

dipolar_001938 AM1 SPE on TS complex (n=54)

0 1
 C       -1.3449200      -3.9124200      -1.2065700
 N       -0.7666100      -3.1108300      -0.1493000
 C       -1.5476700      -2.4051600       0.7109200
 O       -2.7834000      -2.5791100       0.7524800
 C       -0.8867300      -1.4289500       1.5884800
 C       -1.6082600      -0.7792600       2.7366300
 N        0.3036000      -1.0179600       1.2564600
 C        1.3077800      -0.4799900       0.8439900
 C        2.7308200      -0.4655600       0.8860100
 C        3.4489600       0.4611100       0.1001900
 C        4.8405300       0.4760700       0.1608200
 C        5.5109400      -0.4249000       0.9970200
 C        4.7978400      -1.3464500       1.7744200
 C        3.4087400      -1.3691700       1.7216000
 C       -0.0649200       1.1406900      -0.7732000
 O        0.8818100       0.8980600      -1.7541500
 C        1.0803500      -0.3935900      -2.3400200
 C        0.4375200       2.2665700       0.1280300
 O        0.6977800       2.1975800       1.3267500
 N        0.6145000       3.3943800      -0.5922200
 C        1.0736400       4.6256000      -0.0000800
 C       -1.2735800       0.5958600      -0.6984300
 O       -1.6569500      -0.4001000      -1.5848900
 C       -2.1890200       0.1256000      -2.7919700
 C       -2.3286000       1.0637700       0.2451900
 O       -2.1813500       2.0537800       0.9809900
 N       -3.5056700       0.4007700       0.1693800
 C       -4.6219300       0.7693500       1.0134000
 H       -1.8311900      -3.3206900      -1.9784900
 H       -0.5405500      -4.5178700      -1.6614200
 H       -2.0871100      -4.6106500      -0.7745200
 H        0.2095600      -2.8349000      -0.2408900
 H       -1.3379200      -1.2782600       3.6317600
 H       -2.6916400      -0.8599700       2.5559900
 H       -1.3541700       0.3055200       2.8066200
 H        2.9286600       1.1840700      -0.5905400
 H        5.4154000       1.1918100      -0.4429400
 H        6.5746800      -0.4238600       1.0573200
 H        5.2550100      -2.0411700       2.4169800
 H        2.7654800      -2.0378400       2.2799600
 H        2.0984100      -0.3255900      -2.8142800
 H        1.1146900      -1.1959400      -1.5971700
 H        0.3614500      -0.6383300      -3.1221200
 H        0.4175400       3.2764600      -1.5810000
 H        0.3320500       4.9714100       0.7255200
 H        2.0269000       4.4825600       0.4749500
 H        1.1419400       5.3326500      -0.8266300
 H       -3.0814900       0.7127800      -2.5448700
 H       -1.4274700       0.8186800      -3.2301100
 H       -2.3884000      -0.6858900      -3.4298300
 H       -3.4997200      -0.5225700      -0.2390300
 H       -5.5184100       0.2339000       0.6866200
 H       -4.8267500       1.8619800       0.9260200
 H       -4.4308200       0.5572400       2.0687100

