%chk=ts_138.chk
%mem=2GB
%nprocshared=2
#P AM1 Freq NoSymm

dipolar_001824 AM1 SPE on TS complex (n=49)

0 1
 C       -3.6005100      -3.4983900      -0.4068300
 N       -2.8098000      -2.5550500       0.3534400
 C       -2.8162700      -1.2381100       0.0625600
 O       -3.5513100      -0.7659400      -0.8259300
 C       -1.9172600      -0.3688100       0.8446400
 C       -2.0202300       1.0945600       0.9484100
 O       -1.2676200       1.7376800       1.7118200
 N       -2.9974800       1.6763000       0.2288600
 C       -3.1598800       3.1120100       0.2118700
 O       -0.9445300      -1.0114500       1.4542500
 C        0.1130000      -0.6038400       2.1048300
 C        1.0424000      -1.5962300       2.4739300
 N        1.8651400      -2.3642500       2.8060500
 C        1.3501100      -0.1250300      -0.5436100
 C        2.2342100       0.8361800       0.1251900
 C        3.5838500       0.4882800       0.3402200
 C        4.4910500       1.4129200       0.8588000
 C        4.0688700       2.7010700       1.1979200
 C        2.7229300       3.0475000       1.0314100
 C        1.8144700       2.1304600       0.5046900
 C        1.7597500      -1.5750900      -0.8312100
 C        2.3131600      -1.4908600      -2.2968200
 C        1.0295300      -1.2270600      -3.1383200
 C       -0.0936500      -1.1957500      -2.0469100
 C        0.4174300      -2.2798500      -1.0835200
 C        0.2466400       0.0615800      -1.2698400
 Cl      -0.4685600       1.5930300      -1.7870700
 H       -3.5228300      -4.4651000       0.0958800
 H       -4.6605100      -3.1783300      -0.3983800
 H       -3.2683800      -3.5791700      -1.4365800
 H       -2.1296900      -2.8743100       1.0282100
 H       -3.4483000       1.0811200      -0.4762400
 H       -2.3167600       3.6324200      -0.2559900
 H       -3.2629700       3.4882200       1.2464800
 H       -4.0807500       3.3526200      -0.3360100
 H        0.3644600       0.4633900       2.1085100
 H        3.9097000      -0.5193400       0.0840000
 H        5.5241500       1.1132900       0.9713000
 H        4.7826800       3.4219500       1.5751500
 H        2.3796700       4.0487500       1.3003500
 H        0.7575100       2.4150400       0.4287600
 H        2.4184100      -2.0603600      -0.0849600
 H        3.0293800      -0.6327900      -2.3358500
 H        2.7864000      -2.3801300      -2.5511900
 H        1.0297700      -0.2261700      -3.6318700
 H        0.8341500      -1.9832300      -3.8284400
 H       -1.1421100      -1.2926900      -2.3969400
 H        0.5583200      -3.2590800      -1.5982100
 H       -0.2001900      -2.4770600      -0.1862400

