%chk=ts_168.chk
%mem=2GB
%nprocshared=2
#P AM1 Freq NoSymm

dipolar_002349 AM1 SPE on TS complex (n=48)

0 1
 C       -0.4066200      -2.3185200       5.7320700
 N       -0.9286500      -1.9605700       4.4225500
 C       -0.6007200      -0.8007600       3.8247000
 O       -0.0357200       0.1248500       4.4258700
 C       -0.9438800      -0.6620600       2.3690900
 N       -1.1106500       0.6510100       2.0225900
 C       -1.2707000       0.9538500       0.6937600
 C       -1.2531400       2.4378800       0.3919300
 O       -2.1034500       2.9633200      -0.3252000
 N       -0.2635300       3.1428200       0.9939300
 C       -0.0209100       4.5308500       0.6412200
 C        0.0962900      -0.2690000      -0.0750100
 C        0.4191400      -1.1332800       0.8227400
 C        1.3292600      -2.3090700       1.1598800
 C        0.4765200      -3.5569000       1.4576500
 C        2.1638400      -1.9470600       2.4098100
 C        2.3690300      -2.6365900       0.0497800
 C        1.8932800      -3.3064700      -1.2409000
 C        0.8518800      -2.5354800      -2.0564700
 C        1.2230200      -1.0587100      -2.2811200
 C        0.3309600      -0.0740700      -1.5222500
 Br      -1.4738000      -0.1211800      -2.4791600
 Br       1.1008100       1.7595600      -1.8803800
 H       -0.5314500      -1.5135700       6.4644200
 H       -0.8971600      -3.2244600       6.1050000
 H        0.6943100      -2.5356200       5.6691300
 H       -1.3797400      -2.6795800       3.8865800
 H       -1.7301200      -1.3450900       1.9779700
 H       -0.5968300       1.2947000       2.6513200
 H       -2.1531000       0.4675600       0.2446900
 H        0.5110300       2.6293400       1.3636500
 H        0.7459700       4.9590300       1.3089400
 H        0.3629700       4.6050300      -0.4033200
 H       -0.9249900       5.1402400       0.7054700
 H       -0.1501200      -3.3856500       2.3480300
 H       -0.1739000      -3.8104000       0.6211400
 H        1.1176200      -4.4363900       1.6807200
 H        2.7795900      -2.8094600       2.7509700
 H        1.5342600      -1.6410700       3.2511300
 H        2.8594600      -1.1180200       2.1930100
 H        2.9611700      -1.7572700      -0.1697100
 H        3.1281100      -3.3730700       0.5024500
 H        2.7995100      -3.4859100      -1.8744300
 H        1.4964600      -4.3191900      -1.0392500
 H        0.7617100      -3.0555800      -3.0500700
 H       -0.1156300      -2.6009100      -1.6032700
 H        2.2690100      -0.8650900      -2.0204900
 H        1.1848500      -0.8191200      -3.4077200

