%chk=ts_125.chk
%mem=2GB
%nprocshared=2
#P AM1 Freq NoSymm

dipolar_001576 AM1 SPE on TS complex (n=47)

0 1
 C        3.7655600      -2.3931300      -0.6995000
 N        2.7376300      -2.0676900       0.2702000
 C        1.4689100      -1.8387600      -0.1246200
 O        1.1166700      -2.1356700      -1.2748900
 C        0.5369800      -1.1951500       0.9128000
 C        1.0416400      -1.2687100       2.3419700
 N       -0.8158300      -1.5894500       0.7547800
 C       -1.6004100      -2.0738500       1.8944100
 C       -1.3620400      -1.0818100      -0.4395000
 C       -2.8250100      -1.0605700      -0.6934200
 O       -3.2870000      -1.0757700      -1.8272200
 O       -3.5933900      -0.8607700       0.3836600
 C       -4.9792800      -0.5837300       0.1475100
 C       -0.6940500       0.7369400      -0.6460500
 C       -0.5170100       0.8688200      -2.1505800
 C       -1.6692200       1.7415400       0.0264800
 C       -1.1157200       3.1922600      -0.0811200
 C        0.1008500       3.1717700       0.8875400
 C        0.1131400       1.7019900       1.4106100
 C       -1.4081300       1.4601700       1.5178300
 C        0.4729600       0.6956700       0.2825900
 Br       2.2525000       1.1410800      -0.4744200
 H        3.8625100      -1.5795000      -1.4508000
 H        4.7220900      -2.5037500      -0.1819600
 H        3.5365100      -3.3179500      -1.2406000
 H        3.0311000      -1.8023800       1.1969000
 H        1.9663600      -0.7353500       2.3936400
 H        1.2412600      -2.3184700       2.7699900
 H        0.3245600      -0.8084100       3.0187800
 H       -1.9321000      -1.2465000       2.5798000
 H       -1.0206400      -2.7778700       2.5021700
 H       -2.5087700      -2.5879500       1.5601800
 H       -0.8166500      -1.4826700      -1.3119600
 H       -5.4333300      -0.4288800       1.1308700
 H       -5.4695400      -1.4104800      -0.3773700
 H       -5.0693800       0.3354200      -0.4572700
 H       -0.2724500       1.8919400      -2.5420400
 H        0.2730100       0.2002200      -2.5113000
 H       -1.4696700       0.5762900      -2.6421100
 H       -2.6978100       1.6452600      -0.3374300
 H       -0.8668600       3.5196300      -1.0882200
 H       -1.9200300       3.9267800       0.2808900
 H        1.0196900       3.5141100       0.4216100
 H       -0.0815100       3.8930000       1.7640000
 H        0.7174600       1.5845300       2.3080600
 H       -1.9057100       2.1670100       2.1827500
 H       -1.6472200       0.4452900       1.7996100

