%chk=ts_181.chk
%mem=2GB
%nprocshared=2
#P AM1 Freq NoSymm

dipolar_002585 AM1 SPE on TS complex (n=55)

0 1
 C        5.9220000       2.7645300       2.2634400
 N        5.3731200       1.4820400       2.6799800
 C        4.8757800       0.6204400       1.7695400
 O        5.1191200       0.7534000       0.5593700
 C        4.0519500      -0.5450600       2.3016400
 C        4.6228900      -1.9169400       2.0885100
 C        5.8612000      -2.1566400       1.4691300
 C        6.2873300      -3.4640800       1.2203300
 C        5.4931700      -4.5516200       1.5974800
 C        4.2753900      -4.3247900       2.2469700
 C        3.8459800      -3.0205800       2.4909100
 N        3.5946900      -0.3751400       3.6108500
 C        2.4197300       0.4054300       3.7850800
 C        2.0474300       0.4744900       5.2690500
 C        2.5020300       1.7574100       3.2106900
 N        2.4703100       2.8301600       2.7609700
 C        1.3601300      -0.2893300       2.3660600
 C        2.1559600      -0.5076300       1.3539600
 C        2.0661500      -0.7711300      -0.1628700
 C        2.1215500       0.5944900      -0.8878400
 C        3.2359900      -1.6348100      -0.6731500
 C        0.7459900      -1.4763500      -0.5860600
 C        0.3520600      -2.6676000       0.2991700
 C       -0.9266800      -2.4336300       1.1100200
 C       -1.1022600      -1.0458000       1.7355500
 C       -0.0580200      -0.5578400       2.7460200
 Cl      -0.0252600      -1.7838700       4.1319300
 Br      -0.8804700       1.1536400       3.4954500
 H        5.1495500       3.3854500       1.7433500
 H        6.7622100       2.6443900       1.5574700
 H        6.2788500       3.3418700       3.1301400
 H        5.1890900       1.3871200       3.6775600
 H        6.5037400      -1.3314900       1.1623900
 H        7.2403000      -3.6446500       0.7082600
 H        5.8119200      -5.5789800       1.3782500
 H        3.6389000      -5.1628300       2.5393700
 H        2.8808200      -2.8539400       2.9667800
 H        3.5238300      -1.2276000       4.1873900
 H        2.7886400       1.1018100       5.9333100
 H        2.0764800      -0.5281900       5.7297100
 H        1.0895000       0.9253300       5.4231300
 H        1.2776800       1.2353900      -0.6374200
 H        2.0700700       0.4400700      -2.0258600
 H        3.0577600       1.1195600      -0.7025800
 H        3.1783400      -1.7668000      -1.7709500
 H        4.1922700      -1.1528300      -0.4407500
 H        3.2242900      -2.6307100      -0.2143800
 H        0.8699200      -1.8289800      -1.6678200
 H       -0.0735300      -0.7442400      -0.6619700
 H        0.1945900      -3.5772600      -0.3174400
 H        1.1788100      -2.8964600       0.9617000
 H       -1.8087000      -2.5782100       0.4446500
 H       -1.0106700      -3.2141700       1.8807100
 H       -2.1109600      -1.0689900       2.2618600
 H       -1.2059800      -0.2826100       0.9700600

