%chk=ts_173.chk
%mem=2GB
%nprocshared=2
#P AM1 Freq NoSymm

dipolar_002456 AM1 SPE on TS complex (n=57)

0 1
 C       -0.0409200       4.8911700       0.7554600
 N       -0.4228700       3.4971400       0.5498200
 C        0.4272200       2.6282400      -0.0559500
 O        1.5677800       2.9691700      -0.4137600
 N       -0.0302800       1.3251900      -0.3135800
 N       -1.1430000       0.8882400       0.3560700
 C       -1.1320200       0.8817900       1.8341400
 C       -1.7023800      -0.1139700      -0.4221700
 C       -2.1975200       0.3123600      -1.8191700
 C       -2.1998400       1.7688200      -2.2154200
 O       -2.6631400      -0.5335200      -2.5630500
 C       -2.6906800      -1.0904800       0.2024900
 O       -2.9248300      -2.1740300      -0.2998300
 O       -3.2823000      -0.6505700       1.3002300
 C       -4.1240100      -1.5970600       2.0041300
 C        0.0395300      -1.1432000      -0.8678600
 C       -0.1082700      -2.3315400       0.0135700
 O       -0.2212500      -2.3348700       1.2319200
 O       -0.2139300      -3.4625200      -0.7015700
 C       -0.5946600      -4.6504000       0.0203700
 C        0.1298900      -1.4419400      -2.3950600
 C        1.5104200      -2.0414800      -2.7059600
 C        2.3662400      -1.0200000      -2.5770100
 C        1.4891000       0.1842800      -2.1841300
 O        0.2839500      -0.1047500      -2.8985900
 C        1.0156500      -0.0092400      -0.6868700
 C        2.1372300       0.0209100       0.3357400
 C        3.3979100       0.5381700      -0.0272200
 C        4.4164600       0.7017500       0.9157100
 C        4.2046800       0.3552900       2.2519700
 C        2.9670000      -0.1760500       2.6254700
 C        1.9514600      -0.3444000       1.6819100
 H        0.1045100       5.4574200      -0.1794800
 H       -0.8138400       5.4479400       1.3548400
 H        0.9106400       4.9856600       1.3388800
 H       -1.4170100       3.3120100       0.7257000
 H       -0.2714400       1.4707700       2.1573000
 H       -1.0868900      -0.1136800       2.2134100
 H       -2.0611500       1.3849900       2.1982000
 H       -2.2995400       2.4812800      -1.4085500
 H       -1.2652100       1.9913200      -2.7735900
 H       -3.0370400       1.9125600      -2.9484400
 H       -3.5234300      -2.4950600       2.2960300
 H       -4.4948800      -1.1105300       2.9220000
 H       -4.9669000      -1.9282400       1.3856900
 H       -0.6722300      -5.4750600      -0.7066100
 H       -1.5954700      -4.5119600       0.5024900
 H        0.1291700      -4.9103000       0.8035800
 H       -0.7349800      -1.9521100      -2.8091400
 H        1.7202600      -3.1032700      -3.0301400
 H        3.4736200      -1.0288500      -2.7651500
 H        1.8851500       1.1592300      -2.3885000
 H        3.6156200       0.8412200      -1.0490800
 H        5.3851100       1.1342700       0.6171300
 H        4.9913300       0.5136400       3.0071100
 H        2.7799700      -0.4445300       3.6718200
 H        1.0127800      -0.7783300       1.9886900

