%chk=ts_176.chk
%mem=2GB
%nprocshared=2
#P AM1 Freq NoSymm

dipolar_002468 AM1 SPE on TS complex (n=63)

0 1
 C        3.3499100      -3.2035700       1.5862700
 O        2.2399400      -2.5825500       0.9173100
 C        2.3981800      -2.3066400      -0.3721400
 O        3.3638500      -2.6600100      -1.0156500
 C        1.3275000      -1.3457000      -0.9291200
 C        1.1059200      -1.6735200      -2.4183300
 O        0.1686000      -1.6433500      -0.1610300
 C       -0.9146600      -0.7973500      -0.1427400
 C       -1.6924000      -0.5325900      -1.3868500
 C       -2.0321000      -1.5640300      -2.2856800
 C       -2.7944000      -1.2894600      -3.4251500
 C       -3.2567700       0.0079300      -3.6711700
 C       -2.9610500       1.0277800      -2.7605700
 C       -2.1879100       0.7574900      -1.6328900
 C       -1.6453400      -0.9116600       1.1115100
 C       -2.9059700      -0.2882900       1.3047000
 C       -3.5535000      -0.3386000       2.5347600
 C       -2.9818800      -1.0266400       3.6141500
 C       -1.7619600      -1.6859500       3.4336900
 C       -1.0946400      -1.6219700       2.2122300
 C        0.8280200       1.1398000      -0.0346100
 C        0.4145700       1.3710900       1.3386100
 C       -0.6143600       2.3135200       1.6354200
 C       -1.0782700       2.5049100       2.9293200
 C       -0.5315100       1.7824300       4.0030700
 C        0.4865200       0.8627900       3.7397700
 C        0.9422700       0.6443300       2.4383500
 C        0.9524900       2.3518800      -0.9822600
 C        0.8244600       1.9450100      -2.4754400
 C        2.1822400       1.2599500      -2.7891400
 C        2.8140700       1.1306500      -1.3937400
 C        2.4943800       2.5619900      -0.8611100
 C        1.9414300       0.2226800      -0.4340800
 H        3.0688900      -3.2834300       2.6400300
 H        3.5588600      -4.1848200       1.1604900
 H        4.2453000      -2.5586100       1.4853800
 H        2.0529000      -1.7366300      -2.9267500
 H        0.4652300      -0.9196500      -2.8941900
 H        0.5708400      -2.6780800      -2.6408800
 H       -1.7119200      -2.5964400      -2.1053100
 H       -3.0458500      -2.0906700      -4.1355500
 H       -3.8480400       0.2354100      -4.5606200
 H       -3.3046800       2.0453900      -2.9274600
 H       -1.9277400       1.5417100      -0.9270800
 H       -3.3816700       0.2296800       0.4800600
 H       -4.5146800       0.1688700       2.6590500
 H       -3.4974000      -1.0592500       4.5833100
 H       -1.3147500      -2.2343400       4.2735400
 H       -0.1506500      -2.1478300       2.0965600
 H       -1.0723800       2.8711300       0.8144400
 H       -1.8921200       3.2171300       3.1061500
 H       -0.9015800       1.9388300       5.0179000
 H        0.9165800       0.2843500       4.5606500
 H        1.7301500      -0.0830900       2.2705300
 H        0.3434300       3.2391200      -0.7112700
 H        0.6537700       2.8194900      -3.1100700
 H       -0.0190600       1.2659900      -2.5975100
 H        2.8045100       1.8918600      -3.4352300
 H        2.0833000       0.2921300      -3.2744300
 H        3.9103800       0.9074300      -1.4160400
 H        2.8832200       3.4163200      -1.5929200
 H        2.8656900       2.8508600       0.1147500
 H        2.6003000      -0.0930300       0.4365700

