%chk=ts_111.chk
%mem=2GB
%nprocshared=2
#P AM1 Freq NoSymm

dipolar_001434 AM1 SPE on TS complex (n=51)

0 1
 C        3.5003100       2.5020900      -0.8463600
 N        2.8650200       1.5637900       0.0563300
 C        2.3757400       0.3860600      -0.3763700
 O        2.5160900      -0.0106400      -1.5546500
 C        1.6698600      -0.4622300       0.6120800
 C        1.9852000      -0.3477700       2.0369000
 C        2.6272400      -1.5652200       2.6437700
 O        2.0207200       0.7389100       2.6145300
 N        1.0386200      -1.4981800       0.0106800
 C        0.0428900      -2.3340500       0.3433000
 C       -0.5178700      -3.2013400      -0.7431800
 C       -0.6104100      -2.2526500       1.6577800
 C       -1.8787800      -3.0503300       1.8680400
 O       -0.1120100      -1.6280500       2.6083700
 C       -1.6198700      -0.1023000       0.1576900
 C       -1.9980500      -0.2160600      -1.2991200
 C       -2.8963200       1.0679200      -1.4364200
 C       -1.8675300       2.2310200      -1.3140900
 C       -0.5163700       1.4774200      -1.0999000
 C       -0.7251900       0.2630700      -2.0219800
 C       -0.7389900       0.8720200       0.2791400
 C       -0.5099300       1.5866500       1.5389200
 O       -0.9249100       1.2448900       2.6394600
 O        0.1245100       2.7604900       1.3435000
 C        0.2771000       3.6024800       2.4855900
 H        3.9547500       3.3170800      -0.2586200
 H        2.7966600       2.9405400      -1.5683100
 H        4.3044500       2.0022900      -1.4161400
 H        2.5571700       1.8916100       0.9717100
 H        2.3096400      -2.4785900       2.1288800
 H        3.7121100      -1.4186900       2.4195900
 H        2.4631500      -1.5830200       3.6851100
 H        1.3353100      -1.5642100      -0.9638000
 H       -0.2153600      -4.1894600      -0.5226300
 H       -0.1852100      -2.8756400      -1.7319000
 H       -1.6557500      -3.1878400      -0.7806100
 H       -1.6426800      -4.1253900       1.7864700
 H       -2.2629700      -2.8645200       2.8978700
 H       -2.6755800      -2.8338000       1.1479600
 H       -2.1759000      -0.5404300       0.9592200
 H       -2.4484400      -1.1507000      -1.6583700
 H       -3.6375500       1.0610000      -0.6032000
 H       -3.3888200       1.0661800      -2.3633800
 H       -1.8186700       2.8168300      -2.1831800
 H       -2.0505200       2.8800500      -0.4232700
 H        0.4010000       2.0772200      -1.2608900
 H       -0.9250000       0.5782900      -3.0645800
 H        0.1126900      -0.4563000      -2.0575300
 H        0.8670500       3.0997400       3.2555800
 H        0.7836700       4.5017200       2.1296800
 H       -0.7152000       3.8653500       2.8964600

