%chk=ts_143.chk
%mem=2GB
%nprocshared=2
#P AM1 Freq NoSymm

dipolar_001911 AM1 SPE on TS complex (n=49)

0 1
 C        1.3772600      -1.5313600       4.1602700
 O        1.3021400      -1.3793400       2.7239000
 C        2.0261400      -0.3997300       2.1937600
 O        2.8640300       0.2230500       2.8152900
 C        1.7584900      -0.0906300       0.7218600
 N        0.7617300      -0.8870900       0.0797900
 C       -0.5651900      -0.4293600       0.1734900
 C       -1.2641200      -0.4388900       1.5287500
 C       -0.9121500       0.4227200       2.5823300
 C       -1.5938700       0.4076100       3.7971900
 C       -2.6616200      -0.4718000       4.0007800
 C       -3.0216800      -1.3476800       2.9753700
 C       -2.3300500      -1.3339000       1.7571900
 C       -1.4242600      -0.9466500      -0.9443100
 C       -2.5661900      -0.1994700      -1.2742400
 C       -3.3744600      -0.5637000      -2.3457400
 C       -3.0651800      -1.6976600      -3.1077000
 C       -1.9530200      -2.4709600      -2.7697500
 C       -1.1392400      -2.1059400      -1.6894500
 C       -0.0830000       1.7020000       0.0128000
 C        0.0577600       2.3954400      -1.3658600
 O        1.1508700       3.3262500      -1.1497900
 C        2.0824600       2.3458700      -0.6704300
 C        2.0474400       1.3476600      -1.8343500
 C        3.1059000       0.5107400      -2.2392500
 N        4.0009100      -0.1675800      -2.5502700
 C        0.7674800       1.3831400      -2.2808700
 C        0.1919200       0.6272000      -3.3247200
 N       -0.2616800       0.0579200      -4.2331200
 C        1.3054200       1.6312900       0.5088200
 H        0.5913100      -2.2401500       4.4639700
 H        2.3603500      -1.8992300       4.4695300
 H        1.1874200      -0.5546700       4.6656600
 H        2.7521200      -0.3674400       0.1974100
 H        0.9898600      -1.0838900      -0.8940600
 H       -0.0842200       1.1091300       2.4636900
 H       -1.2891000       1.1060000       4.5755100
 H       -3.2034600      -0.4585600       4.9523400
 H       -3.8627100      -2.0405300       3.1296200
 H       -2.6468800      -2.0424000       0.9877600
 H       -2.7851700       0.6737800      -0.6682300
 H       -4.2307400       0.0568000      -2.5870000
 H       -3.6990300      -1.9622000      -3.9579500
 H       -1.7188100      -3.3637100      -3.3720500
 H       -0.2886500      -2.7595900      -1.4469800
 H       -0.9611300       2.0512800       0.6116200
 H       -0.8182300       2.9138800      -1.8227600
 H        3.0609800       2.8148700      -0.4494200
 H        1.5656500       2.0899800       1.5201300

