%chk=ts_170.chk
%mem=2GB
%nprocshared=2
#P AM1 Freq NoSymm

dipolar_002390 AM1 SPE on TS complex (n=46)

0 1
 C        3.6875700      -0.1568700       2.8874800
 N        3.2399000      -0.3096200       1.5236200
 C        2.4002100       0.5758700       0.9656700
 O        1.9770000       1.5906700       1.5328000
 C        1.9889600       0.2664500      -0.4328500
 C        2.5643100      -0.7902900      -1.2992100
 O        3.1905400      -1.7497800      -0.8185700
 N        2.4155100      -0.6116400      -2.6257300
 C        2.8654700      -1.6016200      -3.5784300
 N        0.9964200       0.9574500      -0.8640100
 C       -0.0322300       1.5259200      -1.1607400
 C       -0.7778600       2.6174700      -1.6732400
 O       -0.8720700       3.6776900      -1.0755000
 O       -1.3966600       2.2700000      -2.7957700
 C       -2.1509000       3.3018100      -3.4466800
 C       -1.5079600      -0.2645900       0.0924700
 C       -2.0958200       0.8742400       0.8553100
 F       -1.2386800       1.6111800       1.5811400
 F       -2.9918000       0.3361700       1.7419500
 F       -2.8135200       1.7379700       0.1019500
 C       -2.2262000      -0.8562800      -1.1302500
 C       -1.2550000      -1.2126100      -2.2959900
 C       -0.3938000      -2.3541900      -1.6932400
 C       -0.9440900      -2.4774600      -0.2488900
 C       -2.4645000      -2.2672800      -0.5183700
 C       -0.7422000      -1.2002200       0.5731600
 Br       0.0236400      -1.2829200       2.3204400
 H        4.2281200       0.7994500       3.0033600
 H        2.8503300      -0.1580300       3.5960500
 H        4.3680300      -0.9778300       3.1262400
 H        3.4415100      -1.1553700       0.9775000
 H        1.8061800       0.1408300      -2.9460800
 H        2.2303700      -2.4922300      -3.5653200
 H        2.8430600      -1.1480200      -4.5748000
 H        3.8972500      -1.8963000      -3.3407500
 H       -2.9492500       3.6461300      -2.7886200
 H       -2.5396300       2.8442900      -4.3520000
 H       -1.4642600       4.1286100      -3.6838100
 H       -3.0816000      -0.2503400      -1.4448700
 H       -1.8677800      -1.5779000      -3.1507200
 H       -0.6582000      -0.3780100      -2.6782900
 H        0.6755700      -2.1847000      -1.7499600
 H       -0.5994400      -3.3192500      -2.2016600
 H       -0.6136400      -3.3473700       0.2913900
 H       -3.0085000      -2.1420100       0.4558700
 H       -2.8969100      -2.9531100      -1.1497100

