%chk=ts_124.chk
%mem=2GB
%nprocshared=2
#P AM1 Freq NoSymm

dipolar_001558 AM1 SPE on TS complex (n=32)

0 1
 C        3.8025600       2.7597800      -0.8320600
 N        2.7108700       2.5897000       0.1089500
 C        2.4487600       1.3988600       0.6671200
 O        3.1801200       0.4110600       0.5577700
 C        1.1939200       1.3813400       1.4852400
 N        0.7419400       0.3096400       2.1045100
 C        0.6805600      -0.9365900       1.3775300
 C        0.4603600      -2.0671300       2.2914400
 N        0.2451100      -2.9892500       2.9653200
 C       -0.4333500      -0.7643800       0.1882300
 Br      -0.1748800      -2.3897800      -1.0125500
 C       -1.8451200      -0.9514600       0.8413800
 C       -3.0246800      -1.4202600       0.0234200
 O       -1.9537900      -0.7361200       2.0444600
 C       -0.3068000       0.5303800      -0.5016800
 Br      -1.7727000       1.8098800      -0.2413600
 C        0.6219000       0.8155100      -1.5682100
 C        0.5107700       2.1141700      -2.3458300
 O        1.5453900       0.0225900      -1.8334300
 H        3.6650600       3.7109400      -1.3685800
 H        3.7939900       1.9339200      -1.5553000
 H        4.7861900       2.7768700      -0.3361100
 H        2.0802400       3.3777300       0.2684300
 H        0.8294400       2.3383900       1.8936900
 H        0.0084200       0.4246500       2.7729000
 H        1.7044100      -1.1042700       0.8771200
 H       -3.0788000      -2.5666600       0.0633600
 H       -3.0745100      -1.1501000      -1.0131800
 H       -3.9969400      -1.1151800       0.5439400
 H       -0.4253600       2.1782500      -2.9183400
 H        0.5380200       2.9858900      -1.6726400
 H        1.3655000       2.1862800      -3.0484800

