%chk=ts_182.chk
%mem=2GB
%nprocshared=2
#P AM1 Freq NoSymm

dipolar_002631 AM1 SPE on TS complex (n=53)

0 1
 C       -2.4251500      -4.1175700       3.1761200
 N       -1.6475000      -3.4031600       4.1617800
 C       -2.2175200      -2.5820000       5.0605700
 O       -3.4397900      -2.4289500       5.1663600
 C       -1.2730700      -1.8877300       5.9671300
 C       -1.5145800      -1.4827600       7.3525900
 O       -0.7352800      -0.8145400       8.0153900
 O       -2.6468600      -2.0111200       7.8182000
 C       -2.9620100      -1.7489800       9.1863800
 N       -0.1044100      -1.4744100       5.5426600
 N        0.8944400      -0.9587100       5.2736200
 C       -0.6627100       1.1601800       4.9986300
 C       -1.7504300       0.7068700       4.9963300
 C       -3.1902100       0.7126000       4.7842000
 C       -3.5440600      -0.1842900       3.5932000
 O       -2.6986800      -0.6244400       2.8412900
 O       -4.8464400      -0.3120400       3.3921400
 C       -5.2485900      -1.1043400       2.2675300
 C       -3.9519500       0.5192400       6.0989600
 O       -3.4277300       0.6888600       7.1801100
 O       -5.2422900       0.2684600       5.9442700
 C       -6.0222800       0.1332500       7.1429900
 C       -3.4339700       2.1927400       4.2919800
 C       -3.1480200       3.3257400       5.2883600
 C       -1.7511400       3.4981300       5.9221200
 C       -0.5441800       3.4816900       4.9501600
 C        0.3234100       2.2078900       5.0973800
 C        1.1874800       2.1918400       6.3436400
 Br       1.5494200       2.1080800       3.4808700
 H       -1.7934700      -4.9120100       2.7665100
 H       -3.3042100      -4.5704800       3.6569600
 H       -2.7549400      -3.4543800       2.3764300
 H       -0.6335200      -3.4581900       4.1462800
 H       -2.1633200      -2.1468200       9.8324200
 H       -3.8997800      -2.2815900       9.3717200
 H       -3.0819500      -0.6774400       9.3502300
 H       -4.9151800      -2.1405100       2.4087000
 H       -6.3408200      -1.0508300       2.2481300
 H       -4.8240700      -0.6967900       1.3401400
 H       -7.0483300      -0.0513400       6.8066600
 H       -5.6533400      -0.7148400       7.7350400
 H       -5.9726400       1.0544700       7.7395800
 H       -2.7745300       2.2987100       3.4038500
 H       -4.4523900       2.2473500       3.9657600
 H       -3.8888500       3.2726600       6.1038400
 H       -3.3827600       4.2446200       4.7312200
 H       -1.7542400       4.4579700       6.4451700
 H       -1.6194500       2.7331600       6.7127300
 H       -0.9186100       3.5117300       3.9076500
 H        0.1007500       4.3213800       5.0984500
 H        1.8224100       3.0803200       6.3508000
 H        1.8045300       1.2900400       6.3969800
 H        0.5278000       2.2103800       7.2270400

