%chk=ts_144.chk
%mem=2GB
%nprocshared=2
#P AM1 Freq NoSymm

dipolar_001914 AM1 SPE on TS complex (n=52)

0 1
 C       -0.7124500      -2.9522700       2.9448700
 N       -0.0638100      -2.2796100       1.8369200
 C        1.2267000      -1.9165400       1.9308100
 O        1.9626800      -2.2481600       2.8728200
 C        1.8522000      -1.1612900       0.8052500
 C        3.2404400      -0.9459800       0.9637200
 N        4.3823900      -0.7572700       1.1201300
 N        1.2950600      -0.9985400      -0.4357900
 C        2.1823000      -1.0201600      -1.6245700
 N        0.0372600      -0.8751400      -0.5052700
 C       -0.6914500      -1.0440200      -1.6769300
 C       -0.6492000      -2.3296000      -2.2286100
 C       -1.4759100      -2.6530600      -3.2949500
 C       -2.3570300      -1.7000500      -3.8171500
 C       -2.4102400      -0.4192200      -3.2575700
 C       -1.5880400      -0.0786000      -2.1800900
 C       -0.3197200       1.2741500       0.6652700
 C       -1.6948000       0.7934500       0.9224000
 O       -2.0424800      -0.2485200       1.4496200
 O       -2.5604200       1.7677200       0.5964500
 C       -3.9273600       1.5601600       0.9306000
 C        0.0034700       2.4266500      -0.2729200
 C        1.2887100       2.2020100      -1.1196200
 C        2.4139500       2.1715100      -0.0505400
 C        1.6373000       2.3540600       1.2796500
 C        0.5535300       3.3790400       0.8279500
 C        0.6725400       1.1863100       1.5599700
 C        0.5239500       0.6578700       2.8724100
 N        0.3651000       0.3287500       3.9806200
 H       -0.7893900      -2.2961000       3.8231700
 H       -0.1578000      -3.8572300       3.2354600
 H       -1.7248500      -3.2489800       2.6308500
 H       -0.6517800      -1.7301400       1.2156700
 H        2.9876300      -0.2709800      -1.4788100
 H        1.5919000      -0.7435700      -2.4963200
 H        2.6031400      -2.0025800      -1.7150400
 H        0.0216900      -3.0204200      -1.7331200
 H       -1.3960300      -3.6424100      -3.6693200
 H       -2.9805900      -1.9772400      -4.6521000
 H       -3.1058700       0.3208600      -3.6828000
 H       -1.6689100       0.9591500      -1.7888100
 H       -4.4191400       2.4867400       0.6311300
 H       -4.0199200       1.4047900       2.0163800
 H       -4.3084600       0.7041900       0.3876300
 H       -0.8510100       2.7145300      -0.8770600
 H        1.2776800       1.3274000      -1.7869000
 H        1.4057100       3.0833600      -1.7876400
 H        3.0851200       3.0455700      -0.1527500
 H        3.0546600       1.2881100      -0.0851100
 H        2.2376200       2.5859900       2.1376900
 H       -0.2413900       3.4700700       1.6113400
 H        0.8977000       4.2642900       0.4628600

