%chk=ts_18.chk
%mem=2GB
%nprocshared=2
#P AM1 Freq NoSymm

dipolar_000173 AM1 SPE on TS complex (n=26)

0 1
 C        3.2505700      -2.4336400      -1.2199600
 N        2.5244200      -1.2024200      -0.9573800
 C        2.0197600      -0.9315800       0.2459500
 O        2.1971100      -1.5449500       1.2935700
 C        1.0523600       0.2280800       0.2676000
 N        0.3326100       0.5367000       1.3197300
 C       -0.8611700       1.2426100       0.7701800
 C       -1.3809200       2.2196500       1.7842200
 N       -1.8973400       2.9032000       2.5634400
 C       -0.1159500       1.9901700      -0.4078500
 O       -0.3754400       2.9437100      -1.0347300
 O        0.9433600       1.1063000      -0.7273200
 C       -1.6722000       0.3935700       0.1486900
 F       -2.9984500       0.9285300       0.0564900
 C       -1.4290800      -0.7808500      -0.4755600
 C       -0.7857000      -1.9183000      -0.9530300
 C       -0.7068300      -3.1237500      -0.0141500
 O       -0.2359300      -2.0120200      -2.0889400
 H        3.9662500      -2.2717000      -2.0372100
 H        3.7931100      -2.7452700      -0.3179800
 H        2.5493700      -3.2328800      -1.5115600
 H        2.1714300      -0.6842600      -1.7548600
 H        0.2688300      -0.0799700       2.1269700
 H       -0.5985800      -4.0659700      -0.6010100
 H       -1.5718600      -3.1989900       0.6465800
 H        0.2003900      -3.0325200       0.6147600

