%chk=ts_1.chk
%mem=2GB
%nprocshared=2
#P AM1 Freq NoSymm

dipolar_000017 AM1 SPE on TS complex (n=24)

0 1
 C       -2.7341600      -1.2781000       0.7344300
 C       -2.4634100      -0.4860800      -0.5197500
 O       -3.3627900       0.0248400      -1.1875400
 C       -1.0690100      -0.2671900      -0.9236100
 O       -0.1623000      -0.9569900      -0.2464200
 C        1.1217500      -0.5449400      -0.3723700
 C        1.9984100      -1.2274800       0.6246300
 C        3.4731900      -1.1618300       0.3592300
 O        1.5221400      -1.7800100       1.6072000
 C        0.8960600       1.3104400      -0.0466600
 F        2.1287300       1.8373600       0.2960100
 C       -0.2775600       1.7672600      -0.2230600
 C       -1.5092600       2.6064200      -0.3016500
 H       -1.8660500      -1.3147200       1.4090200
 H       -2.9982800      -2.3206900       0.4736100
 H       -3.6036400      -0.8395900       1.2544200
 H       -0.8417800       0.0402100      -1.9506700
 H        1.4804000      -0.4414900      -1.4206400
 H        4.0213500      -1.2810600       1.3006700
 H        3.7588700      -1.9968300      -0.3189400
 H        3.7357500      -0.2303200      -0.1402400
 H       -1.4121900       3.6938200      -0.2505200
 H       -2.2254900       2.2962700       0.5053400
 H       -2.0507400       2.3621400      -1.2569300

