%chk=ts_191.chk
%mem=2GB
%nprocshared=2
#P AM1 Freq NoSymm

dipolar_002762 AM1 SPE on TS complex (n=66)

0 1
 C       -2.0761100       3.7640900       1.9791500
 N       -1.2995700       3.3019900       0.8471300
 C       -0.3883300       2.3103000       0.9369300
 O       -0.0515800       1.8180100       2.0160500
 C        0.1378900       1.7638500      -0.3730800
 C       -0.0555300       2.6642600      -1.4814000
 N       -0.2747300       3.3586900      -2.3933600
 N        1.3800400       1.1038500      -0.4071800
 C        2.4739500       1.6889500      -1.1961500
 C        1.3972800      -0.2335200       0.1553400
 C        1.4957300      -0.1461000       1.7042600
 O        0.9424400      -0.8866400       2.4989200
 O        2.4223800       0.7426300       2.0946500
 C        2.5983500       0.8833800       3.5215200
 C        2.5949600      -1.0769500      -0.2915400
 C        2.8954900      -1.2478800      -1.6568300
 C        3.8888600      -2.1321200      -2.0817900
 C        4.6272100      -2.8688800      -1.1534500
 C        4.3783200      -2.6820400       0.2078700
 C        3.3879200      -1.7926900       0.6305800
 C       -0.2597600      -1.0118700      -0.3855900
 O       -0.7151300      -1.9556500       0.5417800
 C        0.0218400      -3.1771300       0.6295600
 C       -0.1733200      -1.6170400      -1.8272700
 C       -1.5375000      -2.2809400      -2.1971100
 C       -2.4772400      -1.0651100      -2.4293500
 C       -1.5511100       0.1436900      -2.1048100
 C       -0.2293200      -0.3597800      -2.7055700
 C       -1.2589000       0.1290700      -0.5935000
 C       -2.3864900       0.3991500       0.3221600
 C       -2.3879300       0.0234200       1.6867400
 C       -3.4542800       0.3554600       2.5256600
 C       -4.5473900       1.0766400       2.0393200
 C       -4.5656000       1.4658200       0.6943400
 C       -3.5050100       1.1355200      -0.1458400
 H       -3.1425400       3.5220000       1.8386800
 H       -1.7218000       3.2521700       2.8845100
 H       -1.9716600       4.8444100       2.1148900
 H       -1.5680000       3.6300100      -0.0701200
 H        2.5824000       2.7560700      -1.0382200
 H        3.4373600       1.2027100      -1.0084100
 H        2.2955600       1.5633200      -2.3337800
 H        2.9248400      -0.0685500       3.9955700
 H        3.3659100       1.6543900       3.7164400
 H        1.6525900       1.1971500       4.0277300
 H        2.3486100      -0.6897300      -2.4077300
 H        4.0582000      -2.2604500      -3.1499600
 H        5.3798100      -3.5836700      -1.4886800
 H        4.9492100      -3.2481800       0.9532800
 H        3.2441400      -1.6837200       1.7110700
 H       -0.2288400      -3.8796600      -0.1976900
 H       -0.2194300      -3.6718900       1.5803700
 H        1.1129300      -2.9978100       0.5982900
 H        0.6518100      -2.3165800      -1.9530000
 H       -1.9496500      -2.9871000      -1.4869400
 H       -1.4278000      -2.8774600      -3.1815500
 H       -2.8052800      -0.9826500      -3.5272000
 H       -3.4030700      -1.1031400      -1.8582900
 H       -1.9211900       1.0952100      -2.4766200
 H        0.5981400       0.3048500      -2.5250400
 H       -0.3055100      -0.5913200      -3.7668100
 H       -1.5619600      -0.5377300       2.0928500
 H       -3.4300900       0.0617000       3.5834400
 H       -5.3816400       1.3514300       2.7095000
 H       -5.4133000       2.0504500       0.3087200
 H       -3.5514400       1.4575700      -1.1811600

