%chk=ts_118.chk
%mem=2GB
%nprocshared=2
#P AM1 Freq NoSymm

dipolar_001520 AM1 SPE on TS complex (n=48)

0 1
 C       -3.1701900      -1.9997600       2.0092700
 C       -2.0643800      -0.9699900       2.0564400
 O       -1.3400500      -0.8758900       3.0479500
 C       -1.9926500      -0.0257100       0.9214900
 C       -2.9119600      -0.1267400      -0.3431100
 C       -2.0098300      -0.4526600      -1.5387600
 C       -1.2853900       0.6562000      -1.7336200
 C       -1.7956800       1.6480000      -0.6670900
 O       -3.1947300       1.2688200      -0.5837900
 C       -1.3111400       1.1311500       0.7140700
 C       -0.4866100       2.0350500       1.5585700
 F       -1.2003000       3.1768000       1.8678200
 F        0.6001200       2.4740900       0.8900200
 F       -0.0746400       1.5445800       2.7261700
 C        1.5171600      -0.9359900      -0.2282500
 C        1.7246900      -0.5767300       1.2140800
 C        2.4482100      -0.3910300      -1.2340800
 C        3.2907900      -1.2087100      -2.0264300
 C        4.1924400      -0.6483200      -2.9342000
 C        4.2897800       0.7439600      -3.0683500
 C        3.4777000       1.5717500      -2.2759600
 C        2.5741400       1.0134200      -1.3713700
 N        0.6710100      -1.9566700      -0.5091000
 C        0.5261400      -2.4117400      -1.9022700
 C       -0.1190300      -2.5650200       0.4159900
 C       -0.9357400      -3.7792000       0.1105700
 H       -4.1366000      -1.4425100       2.1834200
 H       -3.2694400      -2.4943500       1.0509200
 H       -3.0467800      -2.7098300       2.8217800
 H       -3.8283700      -0.6789700      -0.2035700
 H       -2.0487500      -1.4261000      -2.0789900
 H       -0.4866300       0.7907000      -2.4884700
 H       -1.5723200       2.6771700      -0.8760600
 H        0.8336800      -0.4937900       1.8521600
 H        2.3031200       0.3586700       1.3272300
 H        2.3504100      -1.3864600       1.6787400
 H        3.2707300      -2.2559000      -1.7746000
 H        4.8725700      -1.3049300      -3.3935600
 H        4.9804300       1.1642900      -3.7597400
 H        3.4522500       2.6659600      -2.4713700
 H        1.8228700       1.7050300      -0.8700800
 H        0.6943600      -1.5348700      -2.5794400
 H        1.2175900      -3.1704100      -2.0731900
 H       -0.5047600      -2.7465900      -2.0702300
 H        0.0823200      -2.3194100       1.4600000
 H       -1.7924800      -3.5700000      -0.5935500
 H       -1.4031400      -4.1237800       1.0436700
 H       -0.3534600      -4.5691200      -0.3154900

