%chk=ts_156.chk
%mem=2GB
%nprocshared=2
#P AM1 Freq NoSymm

dipolar_002138 AM1 SPE on TS complex (n=55)

0 1
 C       -4.3050600       3.2668100       1.6652200
 N       -2.9734400       2.7412900       1.7618100
 C       -2.5771200       1.7175600       0.9948900
 O       -3.2547400       1.1817400       0.1225900
 N       -1.3744400       1.1585400       1.4579300
 N       -0.2520900       1.6901900       1.5633400
 C        0.1411000       3.0456300       1.0960200
 O        0.6560300       1.0194900       2.0382700
 C        0.7118000      -0.4492100       0.1781900
 C        1.2232200      -1.6115500       0.9747900
 C        1.9765300      -1.5631300       2.1558800
 C        2.4797600      -2.7441400       2.7117900
 C        2.2517700      -3.9774700       2.0930600
 C        1.5168700      -4.0278000       0.9054800
 C        1.0133900      -2.8537800       0.3536200
 C        1.8227800       0.2301900      -0.5764900
 C        2.7996300       1.0983500      -0.0664100
 C        3.8443800       1.5380500      -0.8877700
 C        3.9359700       1.1076900      -2.2150300
 C        2.9751500       0.2281800      -2.7217800
 C        1.9352600      -0.2064900      -1.9064200
 C       -0.5309700      -0.4095500      -0.2301400
 C       -1.5330800      -1.4262000       0.2501300
 O       -2.0780900      -2.1707600      -0.6011800
 N       -1.7366200      -1.6236100       1.5629000
 C       -2.3494700      -2.8416800       2.0602700
 C       -0.9390100       0.4994300      -1.3798400
 O       -0.6190500       1.6933700      -1.5002100
 N       -1.5613200      -0.1737800      -2.3641900
 C       -1.9080400       0.4463500      -3.6163700
 H       -5.0359700       2.5377800       2.0336600
 H       -4.5220000       3.5047000       0.6247900
 H       -4.3210500       4.1596600       2.2744000
 H       -2.3540200       2.9687500       2.5347600
 H        0.8383900       3.4673900       1.8055400
 H       -0.7158600       3.6538200       0.9186400
 H        0.6702500       2.8482200       0.1172000
 H        2.1696100      -0.6140300       2.6544000
 H        3.0605000      -2.7014900       3.6349200
 H        2.6456100      -4.8958000       2.5223500
 H        1.3343300      -4.9681700       0.3944600
 H        0.4450400      -2.8801200      -0.5832500
 H        2.7436400       1.4468100       0.9656800
 H        4.5992800       2.2205500      -0.4878600
 H        4.7488600       1.4442800      -2.8555200
 H        3.0246500      -0.1328000      -3.7441900
 H        1.1847000      -0.9081000      -2.2835900
 H       -1.3319000      -0.9649300       2.2267700
 H       -2.4434200      -2.7923300       3.1537900
 H       -3.3511200      -2.9948400       1.6277300
 H       -1.7337700      -3.7266800       1.8021000
 H       -1.8578900      -1.1196300      -2.1041900
 H       -1.0110900       0.8735700      -4.0956300
 H       -2.6389200       1.2470100      -3.4776500
 H       -2.3261200      -0.3239500      -4.2735100

