%chk=ts_120.chk
%mem=2GB
%nprocshared=2
#P AM1 Freq NoSymm

dipolar_001530 AM1 SPE on TS complex (n=52)

0 1
 C       -2.4004100      -3.4828500      -1.4639300
 O       -1.8444800      -2.1674800      -1.3357800
 C       -2.6315600      -1.2243600      -0.8197100
 O       -3.8169900      -1.4106600      -0.5987800
 C       -1.8970000       0.0246300      -0.3595000
 C       -1.6391700      -0.4112400       1.2254500
 N       -0.4759300      -0.5086300       1.7765900
 C        0.6915800      -0.2787000       0.9961100
 C        1.4983400       0.8766600       1.4798000
 C        2.3649000       1.5471100       0.5915700
 C        3.0130600       2.7215900       0.9667000
 C        2.8225500       3.2632000       2.2438400
 C        1.9827600       2.6013800       3.1444700
 C        1.3325700       1.4203100       2.7726600
 C        1.3574000      -1.5263700       0.5484500
 C        0.6342800      -2.7441300       0.4767500
 C        1.1932300      -3.8935500      -0.0787400
 C        2.5058500      -3.8843200      -0.5662700
 C        3.2567200      -2.7106000      -0.4536400
 C        2.7009700      -1.5567400       0.1042800
 C       -0.5963000       0.4622700      -0.9649300
 C        0.2268500      -0.2458900      -2.0163500
 C       -0.7771900       1.9780500      -1.2024500
 C       -0.9357600       2.7412400       0.1380000
 C       -2.3424100       2.3016500       0.6373900
 C       -2.8002900       1.3207500      -0.4586400
 C       -2.2438900       2.0215400      -1.7211600
 H       -2.7294100      -3.8564500      -0.4757000
 H       -1.5985300      -4.1168600      -1.8516400
 H       -3.2554700      -3.4789900      -2.1481100
 H       -2.5203200      -0.7383800       2.0264500
 H        2.4751400       1.1678000      -0.4197000
 H        3.6509600       3.2284700       0.2416100
 H        3.3250600       4.1941600       2.5232300
 H        1.8295200       3.0232800       4.1479300
 H        0.6825300       0.9259700       3.4982300
 H       -0.3843600      -2.7943500       0.8530000
 H        0.5932700      -4.8088900      -0.1427200
 H        2.9396100      -4.7836900      -1.0193600
 H        4.2928700      -2.6909200      -0.8099400
 H        3.3295200      -0.6758900       0.1979200
 H       -0.1028400      -0.1118800      -3.0526800
 H        0.3179200      -1.3152900      -1.8170700
 H        1.2625100       0.1853400      -1.9665800
 H       -0.0239200       2.4293200      -1.8840100
 H       -0.8916200       3.8157000      -0.0203000
 H       -0.1346100       2.4627500       0.8307800
 H       -3.0249800       3.1390400       0.7141800
 H       -2.3084800       1.7970300       1.6183700
 H       -3.8857800       1.1139000      -0.4726700
 H       -2.4329200       1.5450100      -2.6761300
 H       -2.6390000       3.1169700      -1.8231300

