%chk=ts_102.chk
%mem=2GB
%nprocshared=2
#P AM1 Freq NoSymm

dipolar_001353 AM1 SPE on TS complex (n=42)

0 1
 C        4.8433400       0.5301100       0.7634800
 C        3.7839000      -0.4937800       1.0856300
 O        4.0850500      -1.5756600       1.6017200
 C        2.3773500      -0.2079500       0.8019300
 C        1.7269100       0.7540500       0.1036200
 Br       2.3491800       2.2063800      -0.8565400
 C        0.2224900       0.3820900       0.1413500
 O        0.1744100      -0.1686900       1.4720800
 C        1.2185700      -1.1484900       1.2499600
 C        0.6577500      -1.8972500       0.0166200
 C       -0.8265400      -3.1263300       0.6877700
 N       -1.9316500      -2.2875200       0.6885600
 C       -2.4133100      -1.8610100       2.0141600
 C       -2.2698200      -1.6515900      -0.4719500
 C       -2.1761400      -2.4668300      -1.7436200
 C       -3.2355100      -0.5233500      -0.4674400
 C       -3.1160000       0.5642600       0.4276100
 C       -3.9708500       1.6637000       0.3538100
 C       -4.9767900       1.7189100      -0.6169500
 C       -5.1177700       0.6526600      -1.5091100
 C       -4.2624100      -0.4498100      -1.4359700
 C        0.0358900      -0.8723400      -0.7182200
 H        4.9455500       0.6708800      -0.3199600
 H        5.8334500       0.1945200       1.1624600
 H        4.6222200       1.5269400       1.1977000
 H       -0.4588900       1.2110800      -0.0036400
 H        1.4425000      -1.7498500       2.1185500
 H        1.2650500      -2.7263600      -0.4508500
 H       -0.8579800      -3.8806400      -0.1582800
 H       -0.7806000      -3.7021100       1.6935300
 H       -1.7457600      -1.0893900       2.4148700
 H       -2.4283900      -2.7158100       2.7055600
 H       -3.4443300      -1.4566900       1.9669400
 H       -2.4122400      -1.8830200      -2.6004200
 H       -1.1944500      -2.9114600      -1.8471200
 H       -2.9053300      -3.3652500      -1.7367400
 H       -2.3372600       0.5541600       1.1744400
 H       -3.8263600       2.4896100       1.0509900
 H       -5.6260800       2.6061200      -0.6832300
 H       -5.8989500       0.7006300      -2.2826200
 H       -4.4327000      -1.2627700      -2.1446300
 H       -0.0524600      -0.7971200      -1.8302100

