%chk=ts_10.chk
%mem=2GB
%nprocshared=2
#P AM1 Freq NoSymm

dipolar_000080 AM1 SPE on TS complex (n=22)

0 1
 C        3.7043900      -0.4735100       0.1293700
 C        2.4103900       0.2154600       0.4748900
 O        2.3251200       1.2037900       1.1821200
 C        1.3127500      -0.4774200      -0.1957500
 C        0.7873100      -1.2473800      -0.9538400
 Cl       0.1096600      -2.3467600      -2.0353200
 C       -2.0479900      -0.3260900      -0.2482300
 C       -2.8249200      -1.5868000      -0.3290600
 C       -1.8329600       0.4714600      -1.4088000
 N       -1.7616300       1.0512700      -2.4193800
 O       -1.4494000      -0.0728800       0.8634400
 C       -0.6954800       0.9577300       1.3085800
 C       -0.4031900       2.0840900       0.5193000
 N       -0.2051900       3.0721100      -0.0773800
 C       -0.1899900       0.7876300       2.6086100
 N        0.2179800       0.6746300       3.7013300
 H        3.7428000      -0.5366500      -0.9964000
 H        3.6089600      -1.5371700       0.4604300
 H        4.5083100       0.0257900       0.5406700
 H       -2.6045900      -2.2263800       0.5337400
 H       -3.8517900      -1.3011100      -0.3736000
 H       -2.5808900      -2.1566900      -1.2691800

