%chk=ts_128.chk
%mem=2GB
%nprocshared=2
#P AM1 Freq NoSymm

dipolar_001681 AM1 SPE on TS complex (n=52)

0 1
 C        3.8027400      -3.2176800       0.0728900
 O        2.7780200      -2.2339500      -0.0103600
 C        2.5840700      -1.4359400       1.1353100
 O        2.2556900      -2.2401300       2.2659300
 C        1.0583100      -3.0014000       2.1407300
 C        3.8424300      -0.6161600       1.5405700
 C        3.6708800       0.8451200       2.0015800
 C        2.9581100       1.2222200       3.3226200
 C        1.4243400       1.1177200       3.5154600
 C        0.5610900       1.5136400       2.3058100
 F        0.9284000       2.7869100       1.8283000
 C        0.8726500       0.4720000       1.3278800
 C        1.4844100      -0.4772800       0.9001800
 C        0.3722400      -0.5289300      -2.0046700
 C       -0.3719900      -1.4762200      -1.2613200
 N       -0.9466000      -2.3197300      -0.6901300
 C        1.3227800      -1.0036500      -3.0162200
 C        1.8882900      -0.1285200      -3.9677300
 C        2.8312700      -0.5931000      -4.8866200
 C        3.2120900      -1.9384700      -4.8955600
 C        2.6394700      -2.8199300      -3.9708400
 C        1.7069500      -2.3619700      -3.0424200
 N        0.3023800       0.7896600      -1.7227300
 C       -0.5060900       1.5460800      -0.9604100
 C       -1.8142300       1.2291600      -0.4302000
 C       -2.7401600       0.2892200      -1.1673200
 O       -2.2342600       1.8621200       0.5464200
 H        3.6755700      -3.8364900       1.0106000
 H        4.8011000      -2.7584800       0.1227400
 H        3.7253000      -3.8647100      -0.7808100
 H        0.9180700      -3.5022000       3.0746700
 H        1.1039200      -3.6818500       1.2993300
 H        0.1359000      -2.3306100       1.9643400
 H        4.4645700      -0.5648900       0.6052100
 H        4.3500800      -1.1905500       2.2588400
 H        4.6857400       1.2334600       2.0981500
 H        3.2292500       1.4595400       1.1586000
 H        3.1789500       2.2584300       3.4916700
 H        3.3981900       0.6315600       4.1167600
 H        1.0899500       1.6461200       4.3296900
 H        1.1308900       0.0109800       3.6593000
 H       -0.5162000       1.5191400       2.5058000
 H        1.6002300       0.9195600      -3.9776300
 H        3.2300100       0.1011700      -5.6144900
 H        3.9049500      -2.3036600      -5.6469900
 H        2.9152600      -3.8808200      -3.9790400
 H        1.3178100      -3.0624100      -2.2869500
 H        1.0735900       1.3383500      -2.1087800
 H       -0.0399800       2.4839700      -0.5998900
 H       -2.3241900       0.0491400      -2.1463700
 H       -3.6670100       0.8310000      -1.2473700
 H       -2.8811400      -0.6236500      -0.5924200

