%chk=ts_104.chk
%mem=2GB
%nprocshared=2
#P AM1 Freq NoSymm

dipolar_001382 AM1 SPE on TS complex (n=45)

0 1
 C       -2.7546700      -2.5009200       3.1245900
 O       -2.5456600      -2.2327900       1.7327600
 C       -1.3013200      -1.8259500       1.3770700
 O       -0.4140700      -1.6688800       2.2072300
 C       -1.2499800      -1.6816200      -0.0749500
 C       -1.4715200       1.0329000       1.1694000
 C       -2.2540300       1.9831100       0.2421200
 O       -1.4202800       3.1785200       0.3855300
 C       -0.2101100       2.4828000      -0.0456900
 C       -0.7355300       1.9947300      -1.4048500
 F        0.0334800       1.9338700      -2.4999900
 C       -2.0134600       1.6456700      -1.2521600
 C       -3.0270200       1.0673000      -2.1713400
 C       -0.2161000       1.3352800       0.9993300
 C        0.9522400      -0.7224900      -0.3969700
 C        1.6156100      -1.3717100       0.7550900
 O        1.7226200      -2.5941200       0.7775700
 O        2.2317000      -0.5739700       1.6257700
 C        3.0177300      -1.2326600       2.6333300
 C        1.8525900       0.0176500      -1.2956500
 O        2.0220200      -0.2165100      -2.4892900
 O        2.5358400       0.9807600      -0.6576300
 C        3.5139500       1.6903100      -1.4400600
 N       -0.2520900      -1.1763700      -0.8213400
 C       -0.5429100      -1.2073800      -2.2825100
 H       -2.0827100      -3.3035500       3.4773600
 H       -3.8006700      -2.8317800       3.2220700
 H       -2.5900100      -1.6037600       3.7375500
 H       -2.1971800      -1.8360500      -0.5686100
 H       -1.9193200       0.3747000       1.9166400
 H       -3.2739700       2.1274200       0.5335200
 H        0.6866800       3.0958800      -0.0691400
 H       -3.9233800       1.7112900      -2.2299700
 H       -2.6304200       0.9408400      -3.1956500
 H       -3.3621700       0.0846500      -1.8099500
 H        0.6939400       1.0123900       1.5531100
 H        3.8057500      -1.8425700       2.1569400
 H        3.4674700      -0.4513400       3.2512100
 H        2.3801300      -1.8881400       3.2486100
 H        3.0360000       2.2219400      -2.2790400
 H        4.0048100       2.4113300      -0.7722700
 H        4.2663500       0.9873500      -1.8454000
 H       -0.3427600      -0.2623400      -2.7567200
 H       -1.5878500      -1.4987400      -2.4151900
 H        0.1123300      -1.9798800      -2.7124600

