%chk=ts_129.chk
%mem=2GB
%nprocshared=2
#P AM1 Freq NoSymm

dipolar_001699 AM1 SPE on TS complex (n=49)

0 1
 C       -4.4233800       2.5481500       1.6281700
 O       -3.9102000       1.3313700       1.0837600
 C       -2.5993900       1.1032000       1.2350900
 O       -1.8402200       1.8430700       1.8071300
 C       -2.2227100      -0.2188100       0.6255700
 C       -2.1734200      -1.3305400       1.5912100
 C       -2.0604900      -2.7648900       1.1595900
 O       -2.3346600      -1.0383600       2.7809800
 C        0.6670400      -0.4445100       0.9730100
 C        0.9911600       1.0175900       0.5782300
 O        0.5832000       1.0340600      -0.7933800
 C        1.3329600      -0.1112000      -1.1844600
 C        2.7544300       0.3267700      -0.7244300
 C        3.9790700      -0.2357900      -1.3314100
 C        3.8327300      -1.6076400      -1.9358000
 O        5.0451400       0.3782900      -1.3486800
 C        2.5286100       1.0367200       0.4080100
 C        3.3537400       1.4484000       1.5600500
 C        4.8433900       1.5421200       1.4446800
 O        2.7711100       1.6824900       2.6149100
 C        0.8914900      -1.1493700      -0.1177700
 N       -1.4539100      -1.3708400      -1.1816900
 C       -1.5447600      -1.7791700      -2.4869000
 C       -2.8846200      -1.7311400      -3.1806900
 O       -0.5717700      -2.3080600      -3.0114000
 N       -2.0142500      -0.3143400      -0.6870100
 C       -2.3465800       0.8562300      -1.5430400
 H       -5.4779100       2.4825700       1.3725200
 H       -4.2607500       2.5493200       2.7013300
 H       -3.9329700       3.3837900       1.1436800
 H       -1.0364800      -3.0099000       0.8511500
 H       -2.7041100      -2.9439900       0.2745100
 H       -2.3679000      -3.3942500       1.9909100
 H        0.3887400      -0.7695200       1.9381900
 H        0.5274700       1.8425100       1.1479300
 H        1.1943000      -0.3045100      -2.2834400
 H        3.3847600      -2.3246600      -1.2114100
 H        4.8024400      -1.9793900      -2.2747000
 H        3.1285000      -1.5816800      -2.7971500
 H        5.2444100       0.5335900       1.2288100
 H        5.2365300       1.9206700       2.3751400
 H        5.0874400       2.1701600       0.5913900
 H        0.8487900      -2.1960400      -0.3517700
 H       -3.6686600      -1.6547300      -2.3940400
 H       -2.8862700      -0.8979100      -3.8113100
 H       -2.9691300      -2.6699700      -3.7048600
 H       -2.0284300       1.7924400      -1.0230100
 H       -1.7727500       0.7930600      -2.4678400
 H       -3.4116800       0.8828300      -1.7221000

