%chk=ts_192.chk
%mem=2GB
%nprocshared=2
#P AM1 Freq NoSymm

dipolar_002765 AM1 SPE on TS complex (n=51)

0 1
 C       -4.1164100      -4.4372300       4.3110700
 N       -4.9926000      -3.8933500       3.2972600
 C       -6.0743200      -3.1312800       3.6294000
 O       -6.3668200      -2.9120000       4.8108300
 C       -6.8170700      -2.7040400       2.4110900
 C       -5.4563100      -0.3678200       2.9851600
 C       -6.1720300       0.1949000       3.7530500
 C       -6.3025800       1.2342400       4.7480700
 Br      -6.8199100       0.5270900       6.5315800
 Br      -7.6324600       2.6029900       4.1847300
 C       -4.9192300       1.9038100       4.8524200
 C       -3.7587400       0.8955600       5.0120200
 C       -2.8000800       0.7764300       3.8097500
 C       -3.3556700       0.5700900       2.3937700
 C       -4.2509500      -0.6942600       2.2247400
 C       -4.4916000      -0.9846200       0.8088900
 N       -4.6488700      -1.1893200      -0.3225300
 C       -8.6720100      -1.4303300       3.3508700
 C       -9.4855400      -0.2345200       3.1986200
 C      -10.3243600       0.2078000       4.3833600
 O       -9.5381300       0.4444500       2.1594600
 C       -8.8987300      -2.3400300       4.5079900
 O       -9.0925000      -1.9702100       5.6651100
 N       -9.0866700      -3.6452500       4.1535300
 C       -9.1786500      -4.6735500       5.1604500
 N       -7.8557300      -1.8603300       2.3228900
 C       -8.1453600      -1.4376900       0.9220600
 H       -3.5977600      -3.6661800       4.8779700
 H       -3.3723600      -5.0925800       3.8209500
 H       -4.6922600      -5.0633900       5.0261800
 H       -4.7072100      -3.9469300       2.3261800
 H       -6.2674600      -2.8319700       1.4971700
 H       -4.9761200       2.6004000       5.6539000
 H       -4.7894500       2.4631100       3.9066300
 H       -3.1675100       1.1883400       5.8814200
 H       -4.1619900      -0.1123400       5.2644400
 H       -2.2034700       1.6956500       3.7605300
 H       -2.0971500      -0.0460400       4.0128500
 H       -3.9957500       1.4453800       2.1010600
 H       -2.5614800       0.4972400       1.6954800
 H       -3.7458400      -1.5624700       2.6595700
 H       -9.7048200       0.3656600       5.2823200
 H      -10.8316100       1.1467200       4.1113100
 H      -11.0664800      -0.5562300       4.6330300
 H       -8.8163500      -3.8976800       3.2053700
 H      -10.0385200      -4.4707000       5.8107400
 H       -9.3351300      -5.6187500       4.6397700
 H       -8.2746800      -4.7191300       5.7661300
 H       -9.2280500      -1.4532500       0.7505600
 H       -7.7539500      -0.4433400       0.7472900
 H       -7.6602700      -2.1643700       0.2534500

