%chk=ts_146.chk
%mem=2GB
%nprocshared=2
#P AM1 Freq NoSymm

dipolar_001928 AM1 SPE on TS complex (n=52)

0 1
 C       -6.5301900      -2.8031500       8.9263400
 N       -7.2517700      -3.7910500       8.1412400
 C       -6.9338400      -4.0014600       6.8639600
 O       -6.0947500      -3.3954900       6.1748800
 C       -7.6865400      -5.0391900       6.1645400
 N       -8.3449500      -5.6024400       5.3476500
 N       -9.2173600      -6.2613300       4.7135700
 C       -9.0254000      -6.6820600       3.4840700
 N       -9.0410400      -7.1185600       2.3928400
 C       -9.3519700      -7.8217700       6.9403100
 C       -8.6152600      -7.3553700       7.7599600
 C       -8.1548900      -7.2624500       9.1525700
 O       -8.3622300      -5.9312700       9.6105400
 C       -8.1314500      -5.7097600      11.0018600
 O       -6.8205800      -7.6703900       9.3348700
 C       -5.8231100      -6.8806400       8.6910100
 C       -9.0440900      -8.2945200       9.8804600
 C      -10.5512600      -8.1021400       9.6014300
 C      -11.2608200      -9.1992000       8.7749400
 C      -10.6579800      -9.7246300       7.4635400
 C      -10.3636100      -8.6795300       6.3244900
 C      -11.5778200      -7.8913600       6.0508400
 N      -12.5600300      -7.2976800       5.8812800
 C       -9.8842300      -9.4077200       5.0644800
 C      -10.8000600      -9.8327300       4.0966700
 C      -10.3608600     -10.5431600       2.9769400
 C       -9.0036200     -10.8373000       2.8195200
 C       -8.0876300     -10.4196800       3.7899300
 C       -8.5253500      -9.7074400       4.9084900
 H       -7.1436500      -2.4517500       9.7573900
 H       -6.2942300      -1.9378500       8.2706900
 H       -5.5818800      -3.2021400       9.3115900
 H       -7.7941100      -4.5130100       8.6829200
 H       -8.9894700      -6.0631300      11.6032700
 H       -7.2202800      -6.2442300      11.3290400
 H       -7.9984600      -4.6427100      11.1448000
 H       -5.9383700      -6.8099200       7.5976000
 H       -4.8628900      -7.3909200       8.9056500
 H       -5.7692500      -5.8620800       9.1160200
 H       -8.8003400      -8.2451100      10.8932600
 H       -8.7008000      -9.2609300       9.4622600
 H      -10.7249600      -7.1107500       9.1034300
 H      -11.0671200      -8.0299000      10.5501500
 H      -12.2881900      -8.8582000       8.5619700
 H      -11.3568300     -10.0855600       9.4089200
 H      -11.2967200     -10.4673500       7.0327400
 H       -9.6657400     -10.1938400       7.6542800
 H      -11.8591900      -9.5969700       4.2149200
 H      -11.0860300     -10.8601300       2.2289400
 H       -8.6633100     -11.3863700       1.9416600
 H       -7.0244300     -10.6463300       3.6734200
 H       -7.8010400      -9.3754100       5.6592100

