%chk=ts_140.chk
%mem=2GB
%nprocshared=2
#P AM1 Freq NoSymm

dipolar_001839 AM1 SPE on TS complex (n=52)

0 1
 C       -4.4508500      -1.8041400      -1.8598800
 N       -3.5609300      -1.2637000      -0.8564300
 C       -2.2704800      -1.6333300      -0.7874100
 O       -1.7259800      -2.3642900      -1.6487800
 C       -1.4783800      -1.1507700       0.3607800
 C       -2.0484300      -0.4180400       1.5109400
 O       -3.2574600      -0.0885200       1.5294600
 N       -1.2476600      -0.2197600       2.5729400
 C       -1.7206100       0.4561500       3.7562100
 N       -0.1796600      -1.5304700       0.2802200
 N        0.7784100      -1.0865500       0.9974900
 C        2.0708400      -1.5536200       0.7650300
 C        2.4413200      -2.4268400      -0.2751800
 C        3.7624900      -2.8567500      -0.3786900
 C        4.7316500      -2.4169900       0.5312300
 C        4.3729100      -1.5246600       1.5478700
 C        3.0535700      -1.0919200       1.6644500
 C        0.5888200       1.1164200      -0.2601400
 C        1.1509500       1.8340800       0.8766100
 C        2.6002900       2.2384600       0.7532000
 O        0.4865200       2.1624100       1.8659100
 C        1.4357800       0.6694800      -1.4843100
 C        1.2919500       1.8481600      -2.4779000
 C        0.0259800       1.7949800      -2.9027900
 C       -0.5818300       0.5905700      -2.1521600
 O        0.5459700      -0.2915400      -2.0739400
 C       -0.6620200       1.1518400      -0.7131500
 C       -1.8327800       1.9647700      -0.2803200
 H       -4.0661100      -1.6358300      -2.8688900
 H       -4.5786500      -2.8971400      -1.7217800
 H       -5.4328400      -1.3270700      -1.7593600
 H       -3.8973700      -0.6950800      -0.0676900
 H       -0.2474200      -0.3153300       2.3859900
 H       -2.6062400      -0.0603000       4.1665600
 H       -0.9207600       0.4240500       4.5056900
 H       -1.9889100       1.4943400       3.5524500
 H       -0.0256600      -2.1397400      -0.5304000
 H        1.7104500      -2.7633000      -1.0071900
 H        4.0290700      -3.5519400      -1.1724500
 H        5.7584500      -2.7743900       0.4468100
 H        5.1262900      -1.1787500       2.2631500
 H        2.7640200      -0.3898600       2.4537400
 H        3.2482000       1.3653900       0.5931000
 H        2.7220800       2.8906800      -0.1330000
 H        2.9079600       2.7816900       1.6497400
 H        2.4401000       0.2551100      -1.3324700
 H        2.0306000       2.6023900      -2.6451500
 H       -0.5594300       2.4680700      -3.4952800
 H       -1.4467300       0.0715800      -2.6152300
 H       -2.8070300       1.5523700      -0.5283200
 H       -1.7778900       2.2073400       0.7795000
 H       -1.6507300       2.8586200      -0.8713700

