%chk=ts_119.chk
%mem=2GB
%nprocshared=2
#P AM1 Freq NoSymm

dipolar_001528 AM1 SPE on TS complex (n=48)

0 1
 C       -1.2948500       1.8800700       4.5355100
 O       -0.2840000       1.9625600       3.5392900
 C       -0.7030900       2.2522600       2.2703800
 O       -1.8829100       2.5911000       2.0503100
 C        0.3183200       2.1668100       1.2893600
 C        1.7288200       1.7239700       1.4800300
 N       -0.0686500       2.6252500       0.0547000
 C        0.6070400       2.6964600      -1.0668500
 C        0.0194900       3.2870500      -2.2992300
 C       -0.1072900      -0.2478100      -1.1593300
 C       -0.3259000      -0.4909700       0.0102300
 C       -0.3131300      -1.5766300       0.9713800
 Cl      -0.6033500      -1.0867100       2.6972100
 Cl      -1.7338400      -2.7496200       0.5440400
 C        1.0109900      -2.3721500       0.8806200
 C        1.8055400      -2.2933800      -0.4350200
 C        1.2636000      -2.8159000      -1.7844400
 C        0.0937300      -2.1404900      -2.5307200
 C        0.0514300      -0.5634700      -2.5842100
 C       -1.1822400      -0.1176300      -3.3914000
 C        1.3712000      -0.0589200      -3.1915000
 C        1.4911100      -0.0901700      -4.6899800
 O        2.2899300       0.3200200      -2.4810400
 H       -2.0427700       1.1374200       4.3194400
 H       -1.7722200       2.8748800       4.6618200
 H       -0.7546200       1.6336100       5.4706100
 H        1.8124400       1.2002000       2.4838100
 H        2.0588800       0.9379700       0.7420500
 H        2.3906700       2.5369900       1.4447100
 H       -1.0488700       2.9142800       0.0459200
 H        1.5827000       2.1730900      -1.0852800
 H       -1.0751600       3.3453700      -2.2381800
 H        0.4769600       4.2045500      -2.4508200
 H        0.2466400       2.6240700      -3.2086500
 H        0.7866900      -3.3691300       1.1650600
 H        1.6712400      -1.9254500       1.6672600
 H        2.7299000      -2.8567800      -0.2229500
 H        2.1757000      -1.2330800      -0.5630000
 H        0.9939700      -3.8523300      -1.6505300
 H        2.1345400      -2.7874200      -2.4559700
 H       -0.8562200      -2.3995100      -2.0227100
 H        0.0633500      -2.4867400      -3.5245200
 H       -1.2495100       0.9854900      -3.4403300
 H       -1.1751700      -0.5425400      -4.3618300
 H       -2.0858500      -0.4675000      -2.8360300
 H        0.8603000       0.7173100      -5.1193000
 H        1.0523900      -1.0430200      -5.1002300
 H        2.5077300       0.0206100      -5.0065900

