%chk=ts_157.chk
%mem=2GB
%nprocshared=2
#P AM1 Freq NoSymm

dipolar_002154 AM1 SPE on TS complex (n=45)

0 1
 C        4.3810000       1.6092600       0.7447800
 O        3.5479400       0.8138200      -0.0876700
 C        2.3794000       0.4153600       0.4265400
 O        2.0093400       0.5818900       1.5544800
 C        1.7423500      -0.3608500      -0.7026600
 C        2.2914300      -1.7141000      -0.9637300
 C        2.1273300      -2.3141100      -2.3259200
 O        2.9218000      -2.2428200      -0.0551800
 O        0.8368600       0.0674900      -1.5144600
 C        0.0409800       1.1300400      -1.6106700
 C       -0.9555000       1.0326800      -2.6039300
 N       -1.7906600       0.9959500      -3.4228800
 C        0.1989100       2.3287400      -0.7968500
 O        1.2250300       2.6129900      -0.1929200
 O       -0.8887000       3.0952000      -0.8468200
 C       -0.8446500       4.3353700      -0.1242000
 C       -1.4107200      -0.5498300       0.3681900
 C       -1.8075600       0.5785500       1.2573400
 F       -2.6942500       1.4042800       0.6726300
 F       -0.7858900       1.3388200       1.6862300
 F       -2.4198500       0.0956400       2.3812700
 C       -2.3586100      -1.1149800      -0.6885700
 C       -3.1866800      -2.1710100       0.1252300
 C       -2.1381800      -3.2744100       0.4413600
 C       -0.8385700      -2.7186000      -0.2310600
 C       -1.4308000      -2.0476600      -1.4827000
 C       -0.5740700      -1.5322600       0.6645500
 Cl       0.3372500      -1.7563900       2.1335900
 H        5.2266200       1.8102800       0.1023800
 H        3.8269400       2.5120600       0.9975200
 H        4.6432000       1.0365200       1.6231900
 H        1.0820400      -2.4513000      -2.5917600
 H        2.5604800      -1.5910000      -3.0470100
 H        2.6750700      -3.2560500      -2.3681900
 H       -0.6998600       4.1552500       0.9456000
 H       -1.8101700       4.8265300      -0.3054700
 H       -0.0246000       4.9602400      -0.5148200
 H       -2.9519100      -0.3865900      -1.2598200
 H       -3.5895600      -1.7019500       1.0429400
 H       -3.9638000      -2.5413300      -0.4776000
 H       -1.9229500      -3.3891700       1.5292900
 H       -2.3565500      -4.2037000       0.0085000
 H        0.0016300      -3.4225600      -0.3842500
 H       -0.7102300      -1.5354600      -2.1513400
 H       -2.0001800      -2.7625700      -2.0945400

