%chk=ts_203.chk
%mem=2GB
%nprocshared=2
#P AM1 Freq NoSymm

dipolar_002861 AM1 SPE on TS complex (n=45)

0 1
 C       -0.8719400       4.1547700       1.4011700
 O       -0.2515500       3.0766900       0.6771800
 C        1.0596700       2.9365700       0.8062700
 O        1.7832400       3.6662900       1.4400200
 C        1.5662900       1.7139000       0.0131100
 F        2.7976000       1.3750000       0.5852300
 C        1.8526000       2.1475700      -1.4311700
 C        2.1691300       0.9776900      -2.3736200
 C        1.0448700       0.6522300      -3.3608700
 C       -0.3811800       0.5676600      -2.8042600
 C       -0.6960600      -0.4763900      -1.7287900
 Br      -0.2087600      -2.2895200      -2.4045400
 Br      -2.7028200      -0.4264700      -1.5249600
 C       -0.1304000      -0.3651600      -0.3251300
 C        0.6663000       0.5182500       0.2474500
 C        0.6062900      -0.1255800       2.1051400
 C        0.8862500       0.9227600       3.1667100
 O        0.0191900       1.6210100       3.6419600
 O        2.1701000       1.0099900       3.4474200
 C        2.5768100       2.1054500       4.2958100
 C        1.5721400      -1.2378300       1.7717400
 O        2.7454300      -1.3760400       1.9577200
 O        0.8117900      -2.1626600       1.0967900
 C       -0.4620900      -1.5138600       0.8633900
 C       -1.4879900      -2.5727500       0.7045900
 N       -2.2964000      -3.3878100       0.5426300
 N       -0.6456100      -0.7427300       2.0797000
 C       -1.8986500      -0.0192000       2.2435800
 H       -0.4549800       5.1182600       1.0785700
 H       -0.7139300       4.0174300       2.4794900
 H       -1.9372800       4.0943800       1.1581200
 H        1.0175400       2.7591500      -1.7949500
 H        2.7264200       2.8535500      -1.3666400
 H        2.4356200       0.0979300      -1.7872200
 H        3.0660600       1.2231700      -2.9709900
 H        1.3008200      -0.2747800      -3.9007000
 H        1.0186400       1.4461400      -4.1406000
 H       -0.7126700       1.5338800      -2.4334900
 H       -1.0535400       0.3661500      -3.7109700
 H        2.2941000       3.0603900       3.8172000
 H        3.6647200       2.0326400       4.3784400
 H        2.1046800       2.0316100       5.2826400
 H       -1.9136100       0.8777600       1.6262700
 H       -2.7196000      -0.6957500       1.9701100
 H       -2.0041700       0.2539900       3.3042800

