%chk=ts_28.chk
%mem=2GB
%nprocshared=2
#P AM1 Freq NoSymm

dipolar_000309 AM1 SPE on TS complex (n=36)

0 1
 C       -0.9329700       0.1811600       3.3739800
 O       -1.1193100      -0.4915400       2.1309300
 C       -1.9345400       0.0966300       1.2340100
 O       -2.5062300       1.1601500       1.4477000
 C       -2.1115500      -0.6888800       0.0274900
 C       -3.2572800      -0.4066000      -0.9094200
 N       -1.2671400      -1.6227100      -0.2568700
 C       -0.4276000      -2.4548600      -0.6126300
 C        0.2835400      -0.5519300      -2.5763100
 C        1.7457200      -0.3949600      -2.0874200
 O        1.9010000       1.0205700      -2.3862000
 C        0.7707700       1.4106500      -1.5646500
 C        1.2322000       0.8207000      -0.2072600
 O        0.9026000       1.3148800       1.0185800
 C        0.6590700       2.7132000       1.1007200
 C        1.8368400      -0.3340400      -0.5428200
 O        2.3768700      -1.3739800       0.1394100
 C        2.2034500      -1.3740300       1.5577900
 C       -0.3341400       0.5251400      -2.2032500
 H       -0.5922500       1.2084000       3.2222200
 H       -0.1799300      -0.3997800       3.9106600
 H       -1.8798000       0.1879800       3.9392600
 H       -3.0789300      -0.8217600      -1.9127800
 H       -3.4463500       0.6685000      -0.9945500
 H       -4.1489400      -0.8829500      -0.4847200
 H       -0.1315000      -3.3598000      -0.7826700
 H       -0.1054300      -1.4784000      -3.0749400
 H        2.4848000      -1.0385800      -2.5654900
 H        0.5746100       2.4729800      -1.6028900
 H        0.5584700       2.9543500       2.1687500
 H       -0.2768100       2.9878700       0.5875800
 H        1.4959100       3.2937000       0.6791100
 H        2.6905800      -2.2838400       1.9397700
 H        2.6734300      -0.4919300       2.0254100
 H        1.1335800      -1.3941500       1.8210200
 H       -1.3919100       0.8190900      -2.3065200

