%chk=ts_36.chk
%mem=2GB
%nprocshared=2
#P AM1 Freq NoSymm

dipolar_000404 AM1 SPE on TS complex (n=38)

0 1
 C       -1.4705200       3.4144100       0.3057900
 C       -1.1650600       2.4568800      -0.8027800
 O       -1.5754600       2.5609600      -1.9381900
 C       -0.3735000       1.1925900      -0.3734300
 N        0.8944800       1.1410300      -0.6751900
 C        1.6147900       0.0947200      -0.0666000
 C        2.4253800      -0.7788200      -0.9584300
 C        2.2627400      -0.5885900      -2.4474500
 O        3.1503100      -1.6684800      -0.5141600
 C        2.0131600       0.4299600       1.3392700
 C        3.0135500      -0.4349500       2.0610100
 O        1.4873700       1.3885700       1.9074000
 C       -0.1964800      -1.1246800       0.6580000
 C       -0.6355300      -2.1856800      -0.3277100
 C       -1.8413100      -2.9307900       0.3572300
 C       -2.9616500      -1.8526500       0.3739300
 C       -2.3027200      -0.6431300      -0.3476800
 C       -1.4162000      -1.3609200      -1.3814600
 C       -1.1630700      -0.0205300       0.5175900
 F       -1.6057400       0.5256600       1.7254500
 H       -2.0853800       2.8612600       1.0401900
 H       -0.5542500       3.7224400       0.8260700
 H       -2.0361600       4.2916300      -0.0578900
 H        2.8868300      -1.3277800      -2.9867400
 H        2.5252400       0.4247300      -2.7742800
 H        1.2069000      -0.7580100      -2.7211400
 H        3.0891600      -0.0886600       3.1042900
 H        2.6994700      -1.4828700       2.0300600
 H        4.0080800      -0.3875900       1.5834100
 H        0.2577300      -1.4177700       1.6389700
 H        0.1458700      -2.8537400      -0.6781800
 H       -1.6218300      -3.3486800       1.3334700
 H       -2.1370500      -3.8212300      -0.3021100
 H       -3.3447200      -1.6512300       1.3671800
 H       -3.8642800      -2.2047700      -0.2405100
 H       -3.0085100       0.1145200      -0.6901800
 H       -1.9962400      -1.9774700      -2.0655600
 H       -0.7911800      -0.6628700      -1.9356300

