%chk=ts_34.chk
%mem=2GB
%nprocshared=2
#P AM1 Freq NoSymm

dipolar_000393 AM1 SPE on TS complex (n=26)

0 1
 C       -3.6026900      -0.5676700      -1.3383500
 N       -3.3868400       0.6614500      -0.5914300
 C       -2.2260500       1.2975900      -0.3935600
 O       -2.1177600       2.3700800       0.2031600
 C       -0.9362900       0.6121500      -0.8666200
 N       -0.5972300       0.5876200      -2.1147300
 N        0.6080600       0.3847000      -2.5387200
 C        1.5120700      -0.1980500      -0.6337400
 C        1.9877200      -1.4740700      -1.0322100
 N        2.3844600      -2.4987200      -1.4323300
 C        2.4651000       1.0062800      -0.3469700
 C        3.0598700       0.8380000       1.0585200
 C        2.0361300       1.0397800       1.8972600
 C        0.8331300       1.3591200       0.9963500
 O        1.4734800       2.0244800      -0.1035600
 C        0.3299700       0.0834500       0.1808300
 Br      -0.4344800      -1.3597700       1.2685800
 H       -3.6451800      -0.3706800      -2.4195800
 H       -4.5668100      -1.0163000      -1.0327600
 H       -2.8106800      -1.2811700      -1.1275700
 H       -4.2409400       1.1288400      -0.1851700
 H        0.5149800      -0.4023100      -3.3023800
 H        3.1303000       1.2610400      -1.1685700
 H        4.1228700       0.6189900       1.2820000
 H        2.0434100       1.0340200       3.0039700
 H        0.0110100       1.9129400       1.4232200

