%chk=ts_31.chk
%mem=2GB
%nprocshared=2
#P AM1 Freq NoSymm

dipolar_000344 AM1 SPE on TS complex (n=32)

0 1
 C       -0.8531000      -3.4334800       1.6938600
 N       -0.9779200      -2.0198600       1.4249100
 C       -1.1767100      -1.5483700       0.1835500
 O       -1.2373800      -2.2471000      -0.8329700
 C       -1.4069200      -0.1022500       0.1563300
 C       -1.7407800       1.0510800       0.1883700
 C       -2.3829000       2.3534100       0.3506400
 C       -3.8735100       2.1925100       0.2423500
 O       -1.8085500       3.4031900       0.5913800
 C        0.8678200       2.3055600      -0.4284300
 C        0.9941800       2.2111800       0.9828800
 N        1.0637400       2.3468700       2.1443300
 O        0.8625500       1.3090400      -1.2702600
 C        1.1783000       0.0234600      -1.2742200
 C        0.8958400      -0.6218900      -2.4931400
 N        0.6740400      -1.2012200      -3.4852400
 C        1.8917400      -0.6187400      -0.1565600
 O        2.4801700       0.0788800       0.6833500
 N        1.9205500      -1.9663700      -0.1569100
 C        2.5928200      -2.6980100       0.9005200
 H       -0.1688000      -3.8802100       0.9842200
 H       -0.4855700      -3.5357200       2.7112500
 H       -1.8383800      -3.9199500       1.6062400
 H       -0.9177500      -1.3223300       2.1753200
 H       -4.1370800       1.3356900       0.9395400
 H       -4.3531800       3.0654400       0.4599300
 H       -4.0656600       1.7796700      -0.7748500
 H        0.3824300       3.1963900      -0.8338300
 H        1.2685800      -2.4816600      -0.7498200
 H        2.5563800      -3.7722200       0.6687000
 H        3.6481900      -2.3895000       0.9666500
 H        2.1243600      -2.5304400       1.8825700

