%chk=ts_3.chk
%mem=2GB
%nprocshared=2
#P AM1 Freq NoSymm

dipolar_000034 AM1 SPE on TS complex (n=21)

0 1
 C        4.1839200       0.7022500       0.4355700
 O        2.8642000       0.1730800       0.6295200
 C        2.2164200      -0.2058300      -0.4751600
 O        2.6559100      -0.0803600      -1.6033200
 C        0.9689300      -0.8653500      -0.1644200
 C       -0.0190700      -1.4946200       0.0423600
 F       -0.9341400      -2.4023800       0.2591900
 C       -2.0455400       0.2271100       0.1974800
 C       -2.3713600      -0.0985500       1.5218900
 N       -2.6900300      -0.3756800       2.6161600
 C       -2.7426500      -0.3018700      -0.8981600
 N       -3.3632800      -0.7467500      -1.7885800
 N       -1.0535100       1.1560400      -0.0315100
 C       -0.1839700       1.9228200      -0.2198000
 C        0.9438900       2.7793000      -0.4524900
 H        4.1385700       1.6006000      -0.1872200
 H        4.5618300       0.9342900       1.4310500
 H        4.8270100      -0.0512100      -0.0524200
 H        0.5324200       3.7580600      -0.5185800
 H        1.6527000       2.6617800       0.3860600
 H        1.4554400       2.4612600      -1.3808100

