%chk=ts_38.chk
%mem=2GB
%nprocshared=2
#P AM1 Freq NoSymm

dipolar_000415 AM1 SPE on TS complex (n=37)

0 1
 C       -0.8711800       3.8668400      -0.7764100
 O       -1.3261000       2.5502000      -0.4074500
 C       -0.5527900       1.8621500       0.4566900
 O        0.4188800       2.3503600       1.0107100
 C       -0.9180900       0.4513000       0.5166400
 C       -1.4310700      -0.6221000       1.0083600
 C       -2.2911000      -1.1125500       2.1421700
 C       -1.5539800      -1.6113500       3.3588200
 O       -3.5033200      -1.2228900       2.0224000
 C       -0.9042300      -2.0961300       0.1164700
 C       -1.8601900      -3.2592700       0.0774000
 N       -0.6152700      -1.5469800      -1.1406800
 C        0.1155900      -0.3797000      -1.1861000
 C       -0.2263500       0.4495900      -2.3167100
 N       -0.5149400       1.1500800      -3.1976500
 C        1.5493100      -0.3212400      -0.7729700
 C        2.2531000       0.8861100      -0.9348800
 C        3.5880100       0.9909400      -0.5421900
 C        4.2477900      -0.1078800       0.0134400
 C        3.5669800      -1.3226000       0.1456400
 C        2.2337000      -1.4344600      -0.2507000
 H       -1.5917400       4.2492000      -1.5374800
 H       -0.8365600       4.5544600       0.0682900
 H        0.1371700       3.8371500      -1.2581800
 H       -1.1052900      -0.8197100       3.9173100
 H       -2.2435100      -2.2159500       4.0207200
 H       -0.7358000      -2.3105000       3.0349200
 H       -0.0047400      -2.2843100       0.7128800
 H       -1.4171500      -4.2090000      -0.4353200
 H       -2.1259200      -3.5808800       1.0624900
 H       -2.7615800      -3.0285800      -0.5172100
 H       -1.4304600      -1.5697600      -1.7723200
 H        1.7603500       1.7349800      -1.3951700
 H        4.1062900       1.9393400      -0.6748900
 H        5.2913000      -0.0148100       0.3404500
 H        4.0838200      -2.1906300       0.5747900
 H        1.7560200      -2.4109300      -0.1514200

