%chk=ts_39.chk
%mem=2GB
%nprocshared=2
#P AM1 Freq NoSymm

dipolar_000418 AM1 SPE on TS complex (n=44)

0 1
 C        3.6015600      -0.4188500      -3.0218000
 N        2.3578800      -0.0164400      -2.3738000
 C        2.3079300       0.3283400      -1.0806400
 O        3.2866500       0.3850000      -0.3383000
 C        0.9235400       0.6171900      -0.5194700
 N        0.3563700       1.7274400      -0.5930600
 C       -0.9052900       1.9948900       0.0588100
 C       -1.9306900       2.5393100      -0.9361600
 C       -0.6438900       3.0064800       1.1823500
 C       -1.4903500       0.2512200       0.7479600
 C       -2.0458700       0.5780600       2.1478200
 C       -2.5467600      -0.4479300      -0.1734100
 C       -2.9767000      -1.8324300       0.4179300
 C       -1.6957000      -2.7014400       0.2503700
 C       -0.7053200      -1.7166500      -0.4405100
 C       -1.6769200      -0.9342200      -1.3460700
 C       -0.2984700      -0.6098300       0.5518700
 C        0.7446700      -0.8235100       1.5784700
 C        1.6449500      -2.0281800       1.4148700
 O        0.9317200      -0.0377800       2.5175400
 H        4.1896200      -1.0752200      -2.3499100
 H        4.2507100       0.4281800      -3.3062900
 H        3.3760300      -0.9954300      -3.9408200
 H        1.5292800       0.0461200      -2.9473400
 H       -1.9763900       1.9182900      -1.8364700
 H       -2.8860300       2.5473800      -0.4311700
 H       -1.7601500       3.6100000      -1.3023300
 H       -1.5660400       3.2354300       1.7032400
 H       -0.2438700       4.0484200       0.8424000
 H        0.1144200       2.6371400       1.8824500
 H       -2.8080000       1.3983200       2.0219900
 H       -1.2752600       0.9501500       2.8203000
 H       -2.5914500      -0.2283100       2.6833900
 H       -3.4153000       0.1768200      -0.3844100
 H       -3.8334600      -2.2797100      -0.2011800
 H       -3.3458400      -1.8323500       1.4439500
 H       -1.8873500      -3.5952700      -0.4473600
 H       -1.3303400      -3.1380400       1.1759800
 H        0.1405400      -2.2004900      -0.9222700
 H       -2.2116400      -1.5653800      -2.0524300
 H       -1.1891300      -0.1091600      -1.8598400
 H        2.0220500      -2.0909400       0.3780800
 H        1.0928400      -2.9519100       1.6130800
 H        2.4933300      -1.9405200       2.1048000

