%chk=ts_40.chk
%mem=2GB
%nprocshared=2
#P AM1 Freq NoSymm

dipolar_000425 AM1 SPE on TS complex (n=37)

0 1
 C       -2.1144000       0.6410900       2.5337900
 C       -2.0050200      -0.0987100       1.2053300
 O       -2.0904100      -1.3464300       1.2562000
 C       -1.9351500       0.6365700      -0.0167300
 C       -2.2472700       0.0922900      -1.3059200
 C       -2.8404300      -1.3026500      -1.4068800
 O       -2.0727100       0.7137700      -2.3838200
 C        0.6879900      -0.1993600      -0.7959300
 C        1.0102700      -1.2579100       0.2836000
 O        1.2212100      -0.4239600       1.4356300
 C        2.1703600       0.4568900       0.7983800
 C        3.2200100      -0.5645700       0.2978600
 C        2.4805300      -1.6255400      -0.0270400
 Cl       2.9003500      -3.0613500      -0.8853500
 C        1.4103000       0.8190700      -0.5024400
 C       -0.4042400       2.2697000       0.7947200
 C        0.3315400       3.5536300       0.8536200
 N       -1.3449900       1.9536800      -0.0032100
 C       -1.8813400       3.0040600      -0.8873100
 H       -1.2499100       0.4308500       3.1620700
 H       -2.2375000       1.7266200       2.4171200
 H       -3.0020100       0.2265600       3.0281300
 H       -2.0650400      -2.0742500      -1.2744500
 H       -3.6058800      -1.4870400      -0.6434100
 H       -3.2758900      -1.4172400      -2.4161300
 H        0.1027600      -0.4121600      -1.6832300
 H        0.2994500      -2.0796600       0.4935000
 H        2.5030500       1.2367300       1.5078900
 H        4.2404500      -0.3298300       0.1008700
 H        1.5347800       1.7671400      -1.0409100
 H       -0.0013400       1.4422800       1.4722800
 H        1.3489300       3.4469100       1.3218900
 H       -0.2658600       4.1802100       1.4771700
 H        0.4875400       4.0379100      -0.1319400
 H       -1.9310000       3.9213200      -0.3166800
 H       -1.2083500       3.1330100      -1.7563100
 H       -2.8583400       2.7021500      -1.2271800

