%chk=ts_48.chk
%mem=2GB
%nprocshared=2
#P AM1 Freq NoSymm

dipolar_000535 AM1 SPE on TS complex (n=38)

0 1
 C        2.9249700       3.6632500       1.3472600
 N        2.1062100       2.5646700       1.8066700
 C        1.9325400       1.4466800       1.0510200
 O        2.4394800       1.3823600      -0.0862400
 C        1.0862400       0.3999600       1.6678700
 C        0.0433000       0.8055000       2.6735800
 C       -1.0799500       0.7263500      -0.2055900
 C       -0.2969700       0.7054800      -1.5401000
 O        0.0925500      -0.6783700      -1.6064900
 C       -1.2260800      -1.2040700      -1.3942700
 C       -1.9680500      -0.4803400      -2.5351000
 F       -3.1028200      -0.9473300      -3.0666300
 C       -1.3868300       0.7140400      -2.6233300
 F       -1.7565400       1.8280300      -3.2628700
 C       -1.6457700      -0.4440300      -0.1016300
 C        0.3445700      -1.9308500       1.5098800
 C        0.4558500      -3.2244700       0.7344500
 C       -0.6728600      -1.9167000       2.4789600
 N       -1.5084800      -2.1125200       3.2866700
 N        1.1727200      -0.8711600       1.2330800
 C        2.3888000      -1.2811000       0.4742600
 H        2.5748700       4.0575600       0.3960400
 H        3.9778900       3.3389900       1.2204900
 H        2.8932200       4.4464800       2.1113800
 H        1.7341900       2.5670000       2.7408800
 H        0.4417000       0.5701700       3.6423300
 H       -0.1659400       1.9044500       2.6232100
 H       -0.9500400       0.3362800       2.5690200
 H       -1.1461200       1.5915300       0.4462000
 H        0.5723600       1.3804800      -1.6709000
 H       -1.2306400      -2.3136100      -1.4321900
 H       -2.2991100      -0.8784200       0.6478300
 H        0.7212000      -3.0850100      -0.3385800
 H        1.1525100      -3.8596300       1.2090400
 H       -0.5486300      -3.7302800       0.7198400
 H        3.1956700      -0.5877900       0.7318900
 H        2.2075500      -1.2972500      -0.5758500
 H        2.6687300      -2.2759800       0.8554200

