%chk=ts_41.chk
%mem=2GB
%nprocshared=2
#P AM1 Freq NoSymm

dipolar_000455 AM1 SPE on TS complex (n=39)

0 1
 C        4.6295600      -0.2319000       0.4352300
 O        3.3334300       0.1001900      -0.0851800
 C        2.4015800       0.4467100       0.8072300
 O        2.6038300       0.5386700       2.0062600
 C        1.0653200       0.5880300       0.2088700
 N        0.0209600       1.1530700       0.9784400
 C       -1.1018700       0.6613900       0.1247900
 C       -2.3847000       1.4829900       0.5169000
 C       -3.3563500       1.7916300      -0.5724000
 O       -2.5857600       1.7067400       1.6925700
 O       -0.6090200       1.1843500      -1.1792900
 C        0.7429200       0.9166500      -1.1840500
 O        1.3972000       0.9186600      -2.2022800
 C       -1.2691700      -0.7454700       0.0460900
 C       -2.0523000      -1.3480400       1.2636800
 O       -1.9946700      -1.0575300      -1.1701400
 C       -2.6049200      -2.3285900      -1.3961500
 C        0.1810300      -1.3711500      -0.0461800
 C        0.7437800      -2.0362500       1.1789200
 C        0.6333200      -1.9847700      -1.3434200
 H        5.0727100       0.6292800       0.9522400
 H        5.2360000      -0.5096400      -0.4336000
 H        4.5535900      -1.0801000       1.1329900
 H       -0.0385500       0.8958500       1.9502400
 H       -3.4967600       0.8648200      -1.1591000
 H       -4.3104100       2.1332300      -0.1515200
 H       -2.9434000       2.5410200      -1.2588400
 H       -1.6196800      -0.9212500       2.1796200
 H       -3.0985200      -0.9981100       1.1949900
 H       -2.0864400      -2.4518500       1.4071100
 H       -1.9143700      -3.1757300      -1.3643500
 H       -3.0235500      -2.2798000      -2.4477500
 H       -3.4642300      -2.5306200      -0.7325700
 H        0.6183600      -1.4017300       2.0695000
 H        0.2657800      -3.0066500       1.4154700
 H        1.8166000      -2.2263000       1.0266400
 H        1.7284100      -1.8305500      -1.4186400
 H        0.4744600      -3.0829500      -1.3989000
 H        0.1537700      -1.5386200      -2.2239500

