%chk=ts_44.chk
%mem=2GB
%nprocshared=2
#P AM1 Freq NoSymm

dipolar_000487 AM1 SPE on TS complex (n=37)

0 1
 C        4.0279200       1.6823700       1.5632500
 N        3.3252100       0.5885500       0.9177200
 C        2.1093500       0.7473800       0.3786000
 O        1.4932100       1.8294600       0.4032500
 C        1.4810900      -0.4511300      -0.2309000
 C        0.5793900      -0.4528400      -1.2369100
 C        0.1831200       0.6106900      -2.0777300
 N       -0.1326300       1.4498800      -2.8213300
 C        0.1095500      -1.9332300      -1.3401300
 O        1.3862000      -2.5718500      -1.0868000
 C        1.5622000      -1.9373800       0.2114100
 C        0.2510900      -2.3657400       0.8685700
 C       -0.5462200      -0.2348100       2.3879200
 C       -1.3660100      -1.2371900       3.1420100
 N       -0.9341600       0.2920500       1.2618900
 N       -1.9712800      -0.1546300       0.5562300
 C       -2.4346100       0.6100700      -0.4395700
 O       -3.0969100       0.1659100      -1.3766900
 O       -2.1731000       1.9407700      -0.2976400
 C       -2.7555400       2.8077200      -1.2596700
 C       -0.6530800      -2.3425200      -0.0531900
 H        4.9104400       1.2829000       2.0805100
 H        4.3568300       2.4395200       0.8334100
 H        3.3747000       2.1773700       2.2969600
 H        3.7909500      -0.3082300       0.8245400
 H       -0.3392200      -2.2275300      -2.2842400
 H        2.4557100      -2.2331000       0.7384800
 H        0.1734800      -2.7573400       1.9004300
 H        0.4646900      -0.0275300       2.7121000
 H       -1.8811600      -0.5784600       3.8483900
 H       -0.7666200      -1.9604600       3.7365500
 H       -2.1125900      -1.7914700       2.5612800
 H       -0.3220000       1.0423300       0.8951900
 H       -3.8542600       2.6873800      -1.2589200
 H       -2.4862300       3.8077400      -0.9287900
 H       -2.3610900       2.5993600      -2.2532100
 H       -1.7194400      -2.6291100      -0.0683500

