%chk=ts_59.chk
%mem=2GB
%nprocshared=2
#P AM1 Freq NoSymm

dipolar_000721 AM1 SPE on TS complex (n=36)

0 1
 C        4.7244200       1.2325600       0.2856300
 O        3.3548600       0.9633700       0.6872200
 C        2.4055900       1.2216500      -0.1900700
 O        2.5537700       1.7423100      -1.2687400
 C        1.0516700       0.6205100       0.2495100
 N        0.1772600       1.3816700       0.8425800
 C       -1.0850400       0.7906800       1.1404900
 C       -1.3363700       0.5732400       2.5392200
 N       -1.5297900       0.3040700       3.6561000
 C       -2.2739300       1.2681800       0.3733500
 O       -3.4141000       0.9561100       0.6722800
 O       -1.9385500       1.9693900      -0.7048200
 C       -2.9775200       2.2262400      -1.6663300
 C       -0.7836700      -1.2639500       0.2035200
 C       -1.3055400      -2.1760100       1.2769900
 C       -1.4798400      -1.2437800      -1.1853700
 C       -1.1658600      -2.5825400      -1.8826800
 C        0.1260400      -2.4996900      -2.2257200
 C        0.5798700      -1.1148600      -1.7463700
 O       -0.6152500      -0.3505200      -1.9101200
 C        0.6431700      -1.0536500      -0.1480900
 C        1.6610200      -1.8391700       0.5362200
 N        2.5323200      -2.3665100       1.0980700
 H        4.8880400       2.2984600       0.0996500
 H        5.3594900       0.8866500       1.1197300
 H        4.9672500       0.6523200      -0.6265600
 H       -3.7867500       2.8169600      -1.2262600
 H       -3.3817000       1.2696300      -2.0469900
 H       -2.5005900       2.7766200      -2.4873900
 H       -0.6978900      -2.1363000       2.1898300
 H       -2.3452900      -1.8489200       1.5387000
 H       -1.3920900      -3.2373300       0.9706300
 H       -2.5185600      -0.9286000      -1.1720700
 H       -1.8848300      -3.4065500      -2.0684200
 H        0.7500400      -3.2317200      -2.7777800
 H        1.4460700      -0.6686800      -2.2178200

