%chk=ts_58.chk
%mem=2GB
%nprocshared=2
#P AM1 Freq NoSymm

dipolar_000700 AM1 SPE on TS complex (n=44)

0 1
 C       -1.0879500       3.1360900      -1.2161100
 C       -1.3316500       2.0373200      -0.2218500
 O       -1.6028600       2.2717700       0.9406200
 C       -1.1791900       0.6018200      -0.7007000
 C       -1.0665200       0.5255600      -2.1431500
 N       -1.0121900       0.5654100      -3.3036400
 N       -1.7314500      -0.4421100      -0.0316800
 C       -2.7481900      -0.2584500       1.0010800
 C       -0.8690900      -1.6820700      -0.0479200
 C       -0.8267300      -2.2309500      -1.5249100
 C       -1.5828300      -2.7816600       0.7735400
 C        0.5676100      -1.3181700       0.4466400
 C        1.6132600      -2.4007100       0.0060500
 C        0.6737200      -1.1343900       2.0360700
 C        2.1116300      -0.8272200       2.4849000
 C        2.3457500       0.4341000       2.0937900
 C        1.0458200       0.8746900       1.4129900
 O        0.0649300       0.1594400       2.1834600
 C        0.9635800       0.1178400       0.0706700
 C        1.7333400       0.5432100      -1.0922800
 C        2.3916200       1.9050900      -1.0334300
 O        1.8434900      -0.1498100      -2.1157400
 H       -0.2150100       2.9383700      -1.8529600
 H       -1.9597200       3.2362300      -1.8890700
 H       -0.9509600       4.0685100      -0.6631400
 H       -3.3084300       0.6631400       0.8174800
 H       -2.2973500      -0.1853600       2.0171100
 H       -3.4557900      -1.0922500       0.9915800
 H       -0.4648400      -3.2456200      -1.4863000
 H       -0.0926000      -1.6294300      -2.1009500
 H       -1.7816900      -2.2173600      -2.0870200
 H       -2.5984800      -3.1308200       0.3631100
 H       -0.9453600      -3.6377800       0.7563900
 H       -1.7823900      -2.4701400       1.8042300
 H        2.6067800      -2.3757700       0.5156000
 H        1.8209600      -2.3947400      -1.0748000
 H        1.1871100      -3.4099500       0.2517100
 H        0.1808100      -1.9194300       2.5915200
 H        2.8091300      -1.4887400       3.0520000
 H        3.2511100       1.0726200       2.2259800
 H        0.8249400       1.9390600       1.3859500
 H        3.2875100       1.8555100      -0.3962000
 H        2.6905900       2.2160300      -2.0460100
 H        1.7218700       2.6567800      -0.5945300

