%chk=ts_5.chk
%mem=2GB
%nprocshared=2
#P AM1 Freq NoSymm

dipolar_000041 AM1 SPE on TS complex (n=26)

0 1
 C        0.9731600      -0.0782600       3.2766400
 O        0.7870400       0.6885000       2.0763900
 C        1.3425000       0.1952900       0.9558500
 O        2.0579300      -0.7967600       0.9339700
 C        0.9602500       0.9557100      -0.2136000
 C        0.6618500       1.6712700      -1.2544100
 C        1.3701000       2.8129800      -2.0358700
 C       -0.6851500       1.2759400      -1.9880900
 O       -1.5829100       0.7073600      -1.0853600
 C       -1.1353300      -0.3374900      -0.3716700
 C       -1.8060200      -0.4711100       0.8854700
 N       -2.2948200      -0.5630400       1.9380100
 C       -0.5245800      -1.5429100      -0.9978400
 C       -0.3626000      -2.7514400      -0.1209300
 O       -0.1691500      -1.5335300      -2.1707200
 H        0.4203500       0.4585400       4.0601900
 H        2.0335900      -0.1465900       3.5344900
 H        0.5531100      -1.0930400       3.1602300
 H        2.3863000       3.1416500      -1.7968400
 H        0.6960700       3.7112100      -2.0025800
 H        1.3588400       2.4998200      -3.1194900
 H       -0.3626500       0.5109200      -2.7421900
 H       -1.2757200       2.1447300      -2.4360200
 H       -1.3414000      -3.1269100       0.2382200
 H        0.2445400      -2.5114100       0.7553000
 H        0.1307100      -3.5449800      -0.7073300

