%chk=ts_51.chk
%mem=2GB
%nprocshared=2
#P AM1 Freq NoSymm

dipolar_000561 AM1 SPE on TS complex (n=40)

0 1
 C        0.6614200      -3.6189200       1.3544100
 C        1.1858900      -2.1987400       1.2887300
 O        1.1926200      -1.5158700       2.3367000
 C        1.6382700      -1.6967900       0.0006900
 C        1.7854700      -2.6086700      -1.1848400
 C       -1.1855300      -0.6364000       0.0275900
 C       -1.0132500       0.3874700       0.6540300
 C        1.9549100       0.5626500       0.7975500
 C        2.2653000       1.9044900       0.5399900
 N        2.5109800       3.0439300       0.4031600
 N        1.9913300      -0.3895200      -0.1610600
 C        2.3891800       0.0277200      -1.5214400
 C       -1.2540900       1.8282400       0.8564400
 F       -2.5553700       1.9806300       1.3868300
 F       -0.4378800       2.3797300       1.8174600
 C       -1.1571300       2.6197200      -0.4599900
 C       -1.1915000       1.8096600      -1.7663700
 C       -2.4025600       0.8644200      -2.0226600
 C       -2.0228700      -0.6113200      -2.2728800
 C       -1.8623700      -1.4552900      -0.9940800
 F       -1.1899500      -2.6459800      -1.3127200
 H       -0.1841200      -3.7618900       0.6104400
 H        1.4172100      -4.3471000       1.1177000
 H        0.2462200      -3.8014400       2.3547900
 H        1.2189900      -2.2139400      -2.0877600
 H        2.8021200      -2.7156900      -1.4517200
 H        1.3307200      -3.5769200      -0.9748300
 H        1.6082500       0.2502300       1.8074500
 H        2.6921000       1.1001100      -1.4765400
 H        3.2622500      -0.5550700      -1.8205400
 H        1.5738900      -0.0935000      -2.1993900
 H       -0.1976900       3.1840600      -0.4658200
 H       -1.9618500       3.3648500      -0.4144900
 H       -1.2179200       2.5672800      -2.6055100
 H       -0.2847000       1.2641100      -1.9011200
 H       -3.1249900       0.9233100      -1.1415100
 H       -3.0020600       1.1956200      -2.8684100
 H       -2.8194700      -1.1264000      -2.8131400
 H       -1.1068200      -0.6623800      -2.8185000
 H       -2.7906000      -1.6703400      -0.4797300

