%chk=ts_53.chk
%mem=2GB
%nprocshared=2
#P AM1 Freq NoSymm

dipolar_000583 AM1 SPE on TS complex (n=40)

0 1
 C        3.8905700       1.8510700       0.2358100
 O        2.5074000       1.5563100      -0.0326100
 C        1.6996400       1.3668100       1.0264800
 O        2.0861800       1.4615300       2.1736400
 C        0.3578900       0.8566300       0.5704100
 C       -0.9025500       1.2320800       0.5653600
 C       -1.8413900       2.3459000       0.9958100
 C       -1.7637800      -0.2319700      -0.3491100
 C       -2.7133300       0.4942500      -1.3127300
 C       -4.1979800       0.5138900      -1.0830500
 O       -2.2291300       1.1211500      -2.2396300
 C       -2.4173700      -0.9895000       0.7978000
 C       -1.9461900      -2.3664400       1.2197300
 O       -3.3504200      -0.4704900       1.3980500
 N       -0.6464800      -0.8590200      -0.9444600
 C       -0.3743500      -0.8671300      -2.3833500
 C        0.4176200      -0.7635200      -0.0129000
 C        1.7826500      -1.2926300      -0.4016100
 O        2.2542900      -1.4363200      -1.5072800
 O        2.4681900      -1.5259000       0.7241800
 C        3.8552000      -1.8539800       0.5854100
 H        4.3466000       1.0855300       0.8846700
 H        3.9981600       2.8359500       0.7024600
 H        4.4016600       1.8464200      -0.7468400
 H       -2.3496400       2.8101700       0.0888400
 H       -2.7215700       1.8439100       1.5356700
 H       -1.5197000       3.1679800       1.6331800
 H       -4.6183500      -0.4705000      -0.8429800
 H       -4.4253100       1.1793200      -0.2336300
 H       -4.6645200       0.9271200      -1.9867000
 H       -1.3430300      -2.2687100       2.1530200
 H       -2.8348700      -2.9560100       1.4969700
 H       -1.3504800      -2.9202800       0.4857600
 H        0.1576400       0.0369200      -2.7239200
 H        0.2534400      -1.7438800      -2.6104800
 H       -1.3111200      -0.9660800      -2.9324100
 H        0.1325700      -1.2064600       0.9618000
 H        3.9691400      -2.8446700       0.1356900
 H        4.2569300      -1.8378100       1.6017500
 H        4.3540700      -1.1007800      -0.0400000

