%chk=ts_62.chk
%mem=2GB
%nprocshared=2
#P AM1 Freq NoSymm

dipolar_000759 AM1 SPE on TS complex (n=40)

0 1
 C        2.8264000       2.9390500       1.9013900
 N        2.0812400       2.0302200       2.7571400
 C        1.4030100       0.9024200       2.4040000
 O        1.1001300       0.0452900       3.2598100
 N        1.1037200       0.6830100       1.0569500
 C        0.2027600      -0.8541700       0.3983000
 C       -1.1572500      -1.0051600       1.1264900
 O       -1.8850600       0.0851300       0.5130300
 C       -1.7355300      -0.3949000      -0.8431300
 C       -2.3162200      -1.8246900      -0.6957300
 O       -3.0041700      -2.3923100      -1.6945400
 C       -3.4386600      -3.7461300      -1.4921900
 C       -1.9454300      -2.1935200       0.5435300
 F       -2.1439600      -3.3354500       1.2127500
 C       -0.1815100      -0.4292900      -0.9314400
 C        0.4656400       1.4047300      -0.9695300
 C        1.7313900       1.1765500      -1.7340400
 O        2.8373800       0.9208500      -1.2954100
 O        1.4683100       1.2505900      -3.0507700
 C        2.5272800       0.8877800      -3.9389100
 N        0.5632900       1.7286700       0.3729300
 C       -0.4339100       2.5959200       1.0111400
 H        2.2468600       3.8425900       1.6170100
 H        3.1740600       2.4397700       1.0188300
 H        3.7276100       3.3299600       2.4592700
 H        2.2905500       2.1140000       3.7926000
 H        1.0192500      -1.6364700       0.5624700
 H       -1.0868800      -0.9496800       2.1926900
 H       -2.2419900       0.2218800      -1.5822700
 H       -3.9617600      -4.0713400      -2.4149900
 H       -4.1433500      -3.8334700      -0.6438000
 H       -2.5784900      -4.4116700      -1.3190200
 H        0.2707400      -0.9086200      -1.8949800
 H       -0.2153400       2.1437700      -1.4929300
 H        2.1086600       0.9829900      -4.9433200
 H        2.8235000      -0.1547500      -3.7455600
 H        3.3873900       1.5469100      -3.8094400
 H        0.0592500       3.5216500       1.3842800
 H       -1.2076300       2.8699500       0.3069500
 H       -0.8854000       2.0753300       1.8749100

