%chk=ts_64.chk
%mem=2GB
%nprocshared=2
#P AM1 Freq NoSymm

dipolar_000783 AM1 SPE on TS complex (n=39)

0 1
 C        4.5240800      -1.6768900       0.0053900
 N        3.1674900      -1.4459500      -0.4471800
 C        2.8007400      -0.2576300      -0.9690400
 O        3.5999200       0.6543600      -1.2243500
 C        1.4072300      -0.1460800      -1.3783400
 C        0.3419800      -0.0265400      -1.8685900
 F       -0.7963500       0.0598600      -2.5275300
 C       -1.3429600       0.5601400       0.3689400
 C       -1.6603100       1.8865200      -0.2330400
 O       -2.4882300       2.0306800      -1.1434500
 N       -1.0025600       2.9416900       0.2989700
 C       -1.2615800       4.2900900      -0.1541600
 C       -2.0892500      -0.6865700       0.1701600
 C       -1.7077200      -1.8423200       0.8892300
 C       -2.4491800      -3.0162500       0.7953400
 C       -3.5827000      -3.0751000      -0.0237500
 C       -3.9544100      -1.9455200      -0.7586500
 C       -3.2211400      -0.7625900      -0.6705700
 N       -0.1788300       0.4705000       0.9491600
 C        0.9467700       0.3277900       1.3800100
 C        2.0733500       0.1481600       2.1851000
 C        2.9859500       1.3340700       2.3009000
 O        2.2956400      -0.9796800       2.6570800
 H        4.6774700      -2.7513600       0.1513400
 H        5.2420700      -1.3189500      -0.7533400
 H        4.7272300      -1.1514100       0.9473700
 H        2.4356700      -2.0653300      -0.1171600
 H       -0.3509700       2.7876200       1.0592900
 H       -0.6372000       4.9727100       0.4320000
 H       -1.0273300       4.4034500      -1.2172100
 H       -2.3210400       4.5608100      -0.0036300
 H       -0.8337500      -1.8097000       1.5417000
 H       -2.1487200      -3.8840400       1.3825600
 H       -4.1697500      -3.9909800      -0.0848600
 H       -4.8355200      -1.9775200      -1.4039100
 H       -3.5073400       0.1088600      -1.2562100
 H        3.6871400       1.1572100       3.1128400
 H        2.3839500       2.2421800       2.4768700
 H        3.5263800       1.4787300       1.3494300

