%chk=ts_63.chk
%mem=2GB
%nprocshared=2
#P AM1 Freq NoSymm

dipolar_000763 AM1 SPE on TS complex (n=39)

0 1
 C        3.5650600       0.9188700       2.5655100
 N        3.2284300       0.4360700       1.2377000
 C        2.1497600       0.9034700       0.5888200
 O        1.4815900       1.8478900       1.0343000
 C        1.8180200       0.2077300      -0.7096900
 C        2.8475600      -0.6734800      -1.3560000
 N        0.9868600       0.8489000      -1.5796000
 C       -0.2369400       1.3390400      -1.1199500
 C       -1.0969200       1.8646200      -2.1499700
 N       -1.8527100       2.2235000      -2.9601800
 C       -1.0029900      -0.2304300      -0.2740100
 C       -1.9612700       0.4456800       0.6413900
 O       -3.1280400       0.6634200       0.3557100
 O       -1.3898200       0.8674200       1.7727100
 C       -2.1837700       1.6892000       2.6434000
 C       -1.6158900      -1.0769500      -1.4424200
 C       -2.2118800      -2.3601300      -0.8471100
 C       -1.1545500      -3.0990500      -0.4840900
 C        0.0715000      -2.2523000      -0.8600200
 O       -0.4010400      -1.5773700      -2.0409700
 C        0.1330400      -1.0309100       0.1305400
 C        0.5459400      -1.2685800       1.4695800
 N        0.9716600      -1.4872800       2.5366200
 H        3.7639600       1.9983400       2.5830100
 H        4.4610400       0.3881300       2.9218000
 H        2.7340800       0.7093600       3.2614100
 H        3.7715800      -0.3274500       0.8564400
 H        3.0529800      -1.5170400      -0.7246800
 H        2.4912700      -1.0212400      -2.3333900
 H        3.8397600      -0.1488400      -1.5486200
 H        0.9462800       0.4300700      -2.4915400
 H       -0.1180900       2.0494400      -0.2473400
 H       -2.4803200       2.6228300       2.1071100
 H       -3.0705200       1.1818900       3.0011800
 H       -1.5230100       1.9673300       3.4847100
 H       -2.2347600      -0.5208500      -2.1303200
 H       -3.2981600      -2.6308500      -0.8028700
 H       -1.1429700      -4.1425000      -0.0693900
 H        1.0076800      -2.7798300      -1.0110400

