%chk=ts_60.chk
%mem=2GB
%nprocshared=2
#P AM1 Freq NoSymm

dipolar_000732 AM1 SPE on TS complex (n=43)

0 1
 C       -1.7171800      -3.2447300      -1.6328500
 N       -1.4899900      -2.2994600      -0.5500300
 C       -1.5157400      -0.9709200      -0.7790000
 O       -1.9116700      -0.5173200      -1.8735200
 C       -1.0009900      -0.0382800       0.2920900
 C       -1.8406800       1.2019700       0.5647100
 O       -1.8437100       1.7149100       1.6950700
 N       -2.4844800       1.7398200      -0.4764000
 C       -3.1135600       3.0404700      -0.3946500
 N       -0.7027400      -0.6611800       1.5489800
 N        0.6075600      -1.2398200       1.3808600
 C        1.0082900      -1.7704100       2.5649400
 N        1.4586900      -2.2176700       3.5539600
 C        1.6558900      -0.2248300       0.5346700
 C        2.4935900      -0.9534300      -0.5241900
 C        3.4900700       0.0780200      -1.1495000
 C        2.5645300       0.9964400      -2.0000600
 C        1.1470000       0.3967500      -1.7436900
 C        1.4911900      -1.1031600      -1.6842500
 C        0.7411600       0.6844900      -0.2722300
 O        0.7167400       2.0542900      -0.0226500
 C        1.1685700       2.5728800       1.2273200
 H       -2.6968200      -3.0755800      -2.1042600
 H       -1.6845800      -4.2715300      -1.2454100
 H       -0.9465600      -3.1522800      -2.4312000
 H       -1.0103000      -2.6538600       0.2757000
 H       -2.4392500       1.2036100      -1.3386700
 H       -3.8494300       3.0902100       0.4150000
 H       -3.6072300       3.2510300      -1.3483400
 H       -2.3531700       3.8262600      -0.2115900
 H       -0.7310400       0.0709300       2.3004400
 H        2.2411600       0.2156500       1.3784300
 H        2.9859100      -1.8554100      -0.1592400
 H        4.2349900      -0.4859700      -1.8321300
 H        4.1091900       0.6168200      -0.4439900
 H        2.8235100       0.9168200      -3.1167600
 H        2.6731900       2.0514500      -1.7553200
 H        0.3983900       0.7377700      -2.4615800
 H        0.6589000      -1.7320300      -1.4257800
 H        1.9575700      -1.4609600      -2.6181500
 H        2.2654400       2.5896400       1.2448500
 H        0.7905200       3.6142400       1.2857400
 H        0.7805500       2.0118900       2.0799200

