%chk=ts_75.chk
%mem=2GB
%nprocshared=2
#P AM1 Freq NoSymm

dipolar_000984 AM1 SPE on TS complex (n=39)

0 1
 C        3.6549200       1.7768400      -1.4930300
 O        3.1743300       0.6258400      -0.7623600
 C        2.3127000       0.8644100       0.2121700
 O        1.8967400       1.9634200       0.5466400
 C        1.9067100      -0.3838100       0.8893900
 C        2.5425700      -1.6287200       0.6388100
 N        3.0906900      -2.6378300       0.4210900
 O        0.8419000      -0.4695500       1.6395300
 C       -0.1616800       0.2693800       2.0453800
 C       -1.2075700      -0.4701800       2.6605800
 N       -2.1015200      -1.0452300       3.1417700
 C       -0.3662300       1.6617000       1.8705300
 N       -0.7204600       2.7744800       1.8730100
 C       -1.0033400      -0.2887000      -0.8945500
 C       -1.3407600       1.1405700      -0.9553600
 O       -0.5894500       2.0287400      -1.3388200
 O       -2.6037800       1.3788500      -0.5655200
 C       -3.0722100       2.7289300      -0.6751500
 C       -1.9533000      -1.4385200      -0.5715200
 C       -2.4266000      -1.9232800      -1.9826100
 C       -1.1275600      -2.5197900      -2.5996200
 C       -0.0675400      -2.3201500      -1.4531300
 C       -0.9560800      -2.5601400      -0.2126000
 C        0.1012200      -0.8239600      -1.4338900
 H        4.3400700       1.4002200      -2.2676600
 H        2.8369600       2.3443900      -1.9390400
 H        4.2190000       2.4253600      -0.7877500
 H       -4.1192600       2.7151700      -0.3499300
 H       -3.0220000       3.0453300      -1.7395900
 H       -2.4807000       3.4056400      -0.0651800
 H       -2.7568500      -1.2360400       0.1722600
 H       -2.7821700      -1.0241000      -2.5359900
 H       -3.1675500      -2.6360000      -1.8895500
 H       -1.1829700      -3.5229600      -2.8146400
 H       -0.7432700      -1.9316900      -3.4750200
 H        0.8672100      -2.9138900      -1.5030500
 H       -0.4443600      -2.4586900       0.7827000
 H       -1.4278900      -3.5638800      -0.2203500
 H        0.9220800      -0.2580900      -1.8606700

