%chk=ts_79.chk
%mem=2GB
%nprocshared=2
#P AM1 Freq NoSymm

dipolar_001108 AM1 SPE on TS complex (n=33)

0 1
 C        4.1512300       1.5469500       0.7093400
 N        3.0656900       0.5909800       0.8647800
 C        2.4779600       0.0356500      -0.2020600
 O        2.8685000       0.1522900      -1.3660600
 C        1.1985100      -0.7498900       0.0580300
 C        0.9583500      -1.8172600      -0.9127400
 N        0.7246900      -2.6694100      -1.6680700
 O        1.0674200      -1.1568700       1.3544400
 N       -0.2170500      -1.7037000       1.4932600
 C       -0.4326100      -1.8941300       2.8067200
 N       -0.7453100      -2.0796200       3.9199600
 C       -1.3385000      -0.2201800       0.5855200
 C       -2.2937500      -1.1267700       0.0262000
 N       -3.0737600      -1.8769500      -0.4002200
 C       -1.7054800       0.7281800       1.7169900
 C       -2.5319200       1.8806700       1.0523800
 C       -1.4622300       2.6545700       0.2353500
 C       -0.1555100       1.8308700       0.4752800
 C       -0.3570800       1.4414400       1.9536700
 C       -0.3005100       0.4493500      -0.2194300
 Br      -0.5554000       0.5576900      -2.1183500
 H        3.7707500       2.4799100       0.2225000
 H        4.9497200       1.1476400       0.0840100
 H        4.5478000       1.8181500       1.6932800
 H        2.6713800       0.4556100       1.7960200
 H       -2.1837500       0.2382700       2.5606600
 H       -2.9616200       2.5198300       1.9206600
 H       -3.3959300       1.5523400       0.4936300
 H       -1.7777500       2.8198300      -0.7888200
 H       -1.3332600       3.7109800       0.6822500
 H        0.7286800       2.3864000       0.1715100
 H        0.4309000       0.8014900       2.3202100
 H       -0.4624700       2.3168000       2.5954500

