%chk=ts_72.chk
%mem=2GB
%nprocshared=2
#P AM1 Freq NoSymm

dipolar_000930 AM1 SPE on TS complex (n=40)

0 1
 C       -2.1175100       0.0394800      -2.4542300
 N       -0.6783200       0.2344000      -2.1805700
 C        0.1399800      -0.7731400      -2.4506400
 C       -0.3366900      -2.0824400      -3.0050600
 C        1.5281000      -0.7193400      -2.1017500
 N        2.6783100      -0.8347900      -1.9413400
 C        0.0950600      -1.1043000       0.3979300
 C       -0.1438900       0.0101200       0.7362200
 C       -0.3194400       1.0268900       1.7799900
 C       -1.7572600       1.2874100       1.9776500
 N       -2.8927200       1.4348800       2.1600100
 C        0.3780000       2.3096300       1.5556200
 N        0.9457100       3.3146200       1.4617200
 C        0.2839700       0.3243200       3.0640800
 C        1.6622600      -0.3108600       2.7865500
 C        1.7269800      -1.8568800       2.7722300
 C        0.6474600      -2.6944700       2.0726400
 C        0.5234500      -2.4995200       0.5320900
 C       -0.4449200      -3.4535900      -0.0156900
 N       -1.2222000      -4.2281500      -0.3933800
 C       -0.3272900       1.4799100      -1.6611100
 C       -1.3261100       2.3664100      -1.2100000
 N       -2.0959600       3.1588000      -0.8157200
 C        1.0053000       1.9191800      -1.5627000
 N        2.0738300       2.4004000      -1.5192300
 H       -2.2309400      -0.5397100      -3.3682300
 H       -2.5864400       1.0206100      -2.5971000
 H       -2.5673300      -0.4758800      -1.6014000
 H       -1.2937900      -2.4302600      -2.5498800
 H        0.4171900      -2.8766500      -2.7645500
 H       -0.4162800      -1.9461300      -4.0329900
 H       -0.4551800      -0.4545600       3.3248300
 H        0.3058000       1.0616900       3.8240600
 H        2.3501600       0.0325300       3.5594900
 H        2.0833300       0.0838400       1.8326300
 H        2.7064700      -2.1552400       2.3597800
 H        1.7084800      -2.2011200       3.8095500
 H        0.8332200      -3.7295700       2.2224800
 H       -0.3573500      -2.4556200       2.4967200
 H        1.4819100      -2.6535600       0.0379000

