%chk=ts_73.chk
%mem=2GB
%nprocshared=2
#P AM1 Freq NoSymm

dipolar_000975 AM1 SPE on TS complex (n=37)

0 1
 C        2.7639600       1.5945600      -1.9841700
 N        1.9256700       1.3374700      -0.8263000
 C        2.0666400       0.2206800      -0.1214400
 O        3.0220300      -0.5556500      -0.2640200
 C        0.9635000      -0.2284200       0.8805300
 C        1.6854400      -0.9973000       1.8952000
 N        2.1936900      -1.6869900       2.6842300
 N        0.0545800       0.7206700       1.4972000
 C       -0.0788000       0.6730700       2.9708600
 C       -1.1238900       0.9816500       0.7360700
 C       -2.3235700       0.8564900       1.5422200
 N       -3.2946100       0.6888000       2.1619700
 C       -1.2115800       2.2143600      -0.1504100
 C       -2.5485800       2.5808800      -0.7205400
 O       -0.2286800       2.8758000      -0.4396000
 C       -1.1659000      -0.5902800      -0.6953900
 C       -2.6311900      -1.0107400      -0.7309700
 Cl      -0.6814600      -0.0088500      -2.2917800
 C       -0.1239000      -1.4425900      -0.0099200
 C       -0.7294700      -2.4115200       1.0079000
 Cl       0.8593700      -2.4282400      -1.1551000
 H        2.4039800       2.4928400      -2.5054300
 H        3.8170900       1.7418700      -1.7070400
 H        2.7230600       0.7424900      -2.6974700
 H        1.1524900       1.9949200      -0.6396900
 H       -0.5499700      -0.2992100       3.3289100
 H        0.8971700       0.7537200       3.4550300
 H       -0.7072000       1.4885300       3.3299300
 H       -3.3965300       2.1922700      -0.1504700
 H       -2.6023800       3.6739100      -0.7935800
 H       -2.5739100       2.1689300      -1.7342900
 H       -2.8715000      -1.8293100      -1.4033800
 H       -3.2472300      -0.1192400      -1.0652600
 H       -2.9873800      -1.2638700       0.2797200
 H        0.0803600      -2.9300600       1.5228600
 H       -1.3397400      -1.8654200       1.7149100
 H       -1.3950500      -3.2355100       0.5731500

