%chk=ts_88.chk
%mem=2GB
%nprocshared=2
#P AM1 Freq NoSymm

dipolar_001197 AM1 SPE on TS complex (n=43)

0 1
 C        1.3246900       3.5897800       2.3627700
 O        0.7706700       2.9047100       1.2542000
 C        1.1477800       1.6278800       1.0547100
 O        1.9559000       1.0403600       1.7280400
 C        0.4121800       1.2415100      -0.2016600
 N        1.5594500      -1.0285000      -0.3912400
 C        2.9286600      -0.8457700      -0.3997600
 C        3.7364800      -2.1056700      -0.2602900
 O        3.4072500       0.2357700      -0.6959100
 N        0.8392900      -1.7010200       0.3965300
 C        1.2509200      -2.0665700       1.7786800
 N       -0.3844400      -2.0385600       0.1020500
 C       -0.7089000      -2.1606700      -1.2647300
 C       -2.1906200      -2.2932500      -1.4859900
 O        0.1008700      -2.2809800      -2.1700600
 C       -0.8510500       0.8378500      -0.2769000
 C       -1.6687200       0.5144500       0.9389700
 O       -2.8657900       0.3140500       0.9680000
 O       -0.8934300       0.4494500       2.0210100
 C       -1.5109600       0.1018500       3.2656200
 C       -1.4179300       0.8074300      -1.6689900
 O       -0.7194600       0.7651200      -2.6617800
 O       -2.7415000       0.8992700      -1.7076000
 C       -3.3382700       0.9522900      -3.0090100
 H        1.0038100       3.0761400       3.2550100
 H        0.8601800       4.5678200       2.2534600
 H        2.3927600       3.6189500       2.2516500
 H        1.0154200       1.3347100      -1.1231500
 H        3.0710800      -2.9340200      -0.6322700
 H        4.5889800      -1.9841900      -0.8433200
 H        3.9061300      -2.2353200       0.7852300
 H        1.7366500      -3.0346300       1.7226400
 H        0.3324300      -2.1498000       2.4003000
 H        1.9089400      -1.2920400       2.1847700
 H       -2.4390600      -2.0125600      -2.5288000
 H       -2.4498800      -3.3381000      -1.3325300
 H       -2.7672700      -1.6789600      -0.7807300
 H       -0.7060900       0.0856300       4.0099000
 H       -2.2650200       0.8532800       3.5335200
 H       -1.9830200      -0.8870800       3.1908300
 H       -2.9741100       1.8472800      -3.5424700
 H       -3.0758600       0.0555900      -3.5778700
 H       -4.4054100       1.0150600      -2.8315500

