%chk=ts_82.chk
%mem=2GB
%nprocshared=2
#P AM1 Freq NoSymm

dipolar_001156 AM1 SPE on TS complex (n=38)

0 1
 C       -1.2092200       4.1976900       0.7943400
 N       -1.1328400       2.7632500       1.0539600
 C       -1.7301100       1.8764500       0.2416600
 O       -2.5451700       2.2024100      -0.6298900
 C       -1.4173000       0.3920600       0.4323300
 C       -2.6107800      -0.3017200       0.8599700
 N       -3.6115300      -0.8462400       1.1010500
 O       -0.3043000       0.0033800       1.1393500
 C        0.9516000       0.0905700       0.5352700
 C        1.6319800       1.4068400       0.2864400
 C        1.1789900       2.3474900      -0.6554400
 C        1.9299300       3.4816800      -0.9484700
 C        3.1639100       3.6930100      -0.3216100
 C        3.6342400       2.7641800       0.6086500
 C        2.8723600       1.6299900       0.9123900
 C        0.5909100      -0.6072500      -1.3311400
 C        0.8698500      -2.1358700      -1.5240500
 O       -0.2052200      -2.5170900      -2.4257300
 C       -1.2704800      -2.0298800      -1.5797200
 C       -0.9164200      -2.7511500      -0.2819900
 F       -1.7972100      -3.0992100       0.6450300
 C        0.4169900      -2.8261100      -0.2463900
 Cl       1.4616700      -3.3213200       1.0237200
 C       -0.8300700      -0.5258100      -1.4551500
 H       -0.3867400       4.7322100       1.3116200
 H       -1.1050300       4.4117900      -0.2940900
 H       -2.1628700       4.6458100       1.1220800
 H       -0.4897400       2.4809400       1.7860800
 H        1.5808000      -0.5534700       1.2231000
 H        0.2360100       2.1763000      -1.1731400
 H        1.5535500       4.1712100      -1.6980500
 H        3.7523200       4.5691400      -0.5859500
 H        4.6113300       2.9193300       1.0811200
 H        3.2645200       0.9128200       1.6468600
 H        1.2891100       0.0841400      -1.8676000
 H        1.8556100      -2.4675900      -1.9423800
 H       -2.2637800      -2.2538500      -2.0149200
 H       -1.4031600       0.2425900      -1.9887200

