%chk=ts_97.chk
%mem=2GB
%nprocshared=2
#P AM1 Freq NoSymm

dipolar_001295 AM1 SPE on TS complex (n=38)

0 1
 C       -5.4996800       1.1180400      -1.0835900
 O       -4.8028800       0.3453800      -0.0986000
 C       -4.1203300      -0.7213500      -0.5545400
 O       -4.1775100      -1.1084500      -1.7137900
 C       -3.2700600      -1.3003400       0.5018100
 N       -2.7731200      -2.5398900       0.2807500
 C       -1.6572600      -2.8111500      -0.3130000
 C       -1.2711700      -4.2082400      -0.7274000
 C       -0.6152700      -1.3231600      -0.6371200
 C        0.4895200      -1.3517100       0.4707400
 O       -0.3017600      -0.9455000       1.6063900
 C       -0.7168600       0.3135400       1.0444700
 C        0.6803900       0.9020800       0.7259100
 Br       1.0162500       2.7476000       0.7638900
 C        1.4634500      -0.1327600       0.3494200
 C        2.8402400      -0.2322800      -0.1337600
 C        3.8228600       0.7462900       0.1372900
 C        5.1159900       0.6192400      -0.3716500
 C        5.4630500      -0.4827200      -1.1617700
 C        4.5057200      -1.4669600      -1.4261300
 C        3.2137500      -1.3483000      -0.9123300
 C       -1.3668600      -0.1660100      -0.2665500
 H       -5.9756900       1.9497800      -0.5543000
 H       -6.2626400       0.5120500      -1.5959600
 H       -4.7915600       1.5076600      -1.8335500
 H       -3.5614000      -1.0807000       1.5746900
 H       -1.8730300      -5.1135000      -0.3322100
 H       -1.3298200      -4.2810700      -1.8284400
 H       -0.2189400      -4.3938400      -0.4496500
 H       -0.3230600      -1.5188200      -1.7227800
 H        0.9573400      -2.3131200       0.6065700
 H       -1.3429600       0.8979500       1.7120000
 H        3.5904200       1.6097700       0.7637500
 H        5.8707000       1.3881700      -0.1548200
 H        6.4762200      -0.5786200      -1.5689400
 H        4.7613500      -2.3322100      -2.0396400
 H        2.4776400      -2.1179300      -1.1249000
 H       -1.8623300       0.5638200      -0.9728300

