%chk=ts_95.chk
%mem=2GB
%nprocshared=2
#P AM1 Freq NoSymm

dipolar_001277 AM1 SPE on TS complex (n=43)

0 1
 C        5.0700100      -0.8384600      -0.2679400
 N        3.7408900      -0.3370600       0.0663700
 C        2.7428700      -0.3783500      -0.8218100
 O        2.8840300      -0.7258200      -1.9951600
 C        1.2763300      -0.1459700      -0.2908100
 O        1.3887700       0.4776300       1.0331000
 C        0.2496700       1.2012300       1.2229800
 O       -0.1314100       1.5537400       2.3117000
 C       -0.2683000       1.4570700      -0.1424600
 C       -1.4435100       2.3133400      -0.4755300
 O       -1.7644500       2.6133200      -1.6058300
 O       -2.1229000       2.6528000       0.6113500
 C       -3.3459000       3.3834600       0.3975800
 N        0.6306700       1.0030600      -1.0200400
 C        0.6230800       1.0752000      -2.4715600
 C       -0.9688500      -1.0032800       0.1756700
 C       -2.0993100      -0.6439200      -0.6549200
 C       -3.4257300      -0.4513300       0.0517000
 O       -2.0050500      -0.4615100      -1.8825100
 C       -1.1033400      -1.7084200       1.5373700
 C       -1.3275900      -3.2016000       1.2334600
 C       -0.1457500      -3.6277200       0.7654700
 C        0.7888500      -2.4017600       0.8200500
 O        0.2635200      -1.7302000       1.9755200
 C        0.4438800      -1.2934500      -0.2958700
 H        5.5707000      -0.2151200      -1.0205300
 H        5.6936900      -0.8674500       0.6400000
 H        5.0108700      -1.8720700      -0.6745200
 H        3.5731600      -0.0089100       1.0088300
 H       -3.1381200       4.3435200      -0.0970000
 H       -3.7746400       3.5495600       1.3909000
 H       -4.0367900       2.7929800      -0.2237000
 H        0.2954700       0.1186000      -2.8871600
 H        1.6348000       1.3049000      -2.8312300
 H       -0.0725000       1.8650700      -2.7680200
 H       -3.2937000       0.2258900       0.9136300
 H       -3.7939000      -1.4086700       0.4403800
 H       -4.1658200      -0.0256300      -0.6416600
 H       -1.7568500      -1.2324300       2.2750300
 H       -2.2796600      -3.7559400       1.3807900
 H        0.1222800      -4.6574500       0.4457100
 H        1.8479600      -2.6149000       0.8962800
 H        0.4424700      -1.7723200      -1.3644700

