%chk=ts_90.chk
%mem=2GB
%nprocshared=2
#P AM1 Freq NoSymm

dipolar_001225 AM1 SPE on TS complex (n=33)

0 1
 C        3.6574800       0.5971500      -2.8667500
 N        3.0697100      -0.0338700      -1.7081900
 C        2.7966000       0.6625100      -0.5818900
 O        3.0555700       1.8703000      -0.4372500
 C        2.2920400      -0.1145400       0.5641900
 O        1.7802500      -1.3063700       0.5251300
 N        1.5713300      -1.9963200      -0.5942700
 C        1.1594500      -3.3261200      -0.2127000
 C       -0.9762200      -0.3682400      -0.3664700
 Br      -1.7631700      -1.6944900       0.7384200
 C       -1.2790500      -0.2605100      -1.8509400
 C       -2.4903500       0.7347700      -1.8740800
 C       -1.8502000       2.0848300      -1.4328000
 C       -0.3570900       1.6947100      -1.1834100
 C       -0.1401000       0.6629300      -2.3114600
 C       -0.4710400       0.7882900       0.0267700
 Br      -0.4687500       1.4644400       1.8078100
 H        2.9697900       1.2845700      -3.3531600
 H        3.9520400      -0.1931100      -3.5774800
 H        4.5695500       1.1545100      -2.5779900
 H        2.6205500      -0.9519600      -1.7662700
 H        2.2320900       0.3829300       1.5187000
 H        2.0348200      -3.9078200      -0.1521800
 H        0.5622700      -3.3703900       0.7148200
 H        0.5055300      -3.7099200      -1.0463000
 H       -1.4113900      -1.2111500      -2.3957600
 H       -3.2528900       0.3717500      -1.1437700
 H       -2.8879000       0.7872700      -2.8331300
 H       -1.8894000       2.8208900      -2.1640400
 H       -2.2511800       2.4657500      -0.4604300
 H        0.3972500       2.5028800      -1.1157300
 H       -0.3454200       1.1006700      -3.3045200
 H        0.8508700       0.1719700      -2.3423800

