16
dipolar_001992 reactant_1 @ TS geom
C       -0.1411100       0.9273100      -0.1158500
Br      -0.9395100       2.5181500       0.6868400
C       -0.4735400       0.9127400      -1.6408200
C        0.1025600       2.1617400      -2.3323400
C        1.4300500       1.9844000      -2.3158000
C        1.6432400       0.6354400      -1.6162300
O        0.4710700      -0.0915400      -2.0584400
C        1.3253800       0.8074600      -0.0895200
C        2.2179200       1.7732300       0.6590100
H       -1.5039700       0.6692900      -1.8981300
H       -0.4704700       3.0085200      -2.7954500
H        2.2304400       2.6408000      -2.7452300
H        2.5557700       0.1070600      -1.8615200
H        1.8820200       1.9323700       1.6880100
H        3.2575200       1.3588500       0.7021200
H        2.3244700       2.7892900       0.2004900
