34
dipolar_001992 reactant_2 (FRAG2 relaxed, reordered to d) type=dipole
C        3.8900900       2.2371000      -0.7341700
N        3.0406600       1.3293300       0.0037300
C        2.2491500       0.4139800      -0.6542300
O        2.3981700       0.2704300      -1.8977800
C        1.2966300      -0.3101200       0.1460900
C        1.0052600       0.0693200       1.5648700
N        0.5040000      -1.2758600      -0.4774600
C       -0.7891600      -1.4679500      -0.1980200
C       -1.4504700       0.9523100      -0.0957500
C       -2.3173300       1.9587500       0.3213300
C       -1.6286300      -0.3831800       0.3312300
C       -1.4131700      -2.7992300      -0.5030300
C       -2.6971500      -0.6565600       1.2105800
C       -3.5505900       0.3596800       1.6447500
C       -3.3707400       1.6721700       1.1998800
C        1.1766900      -2.2664800      -1.3420700
H        4.6096800       1.6886100      -1.3613900
H        2.8058500       1.5830200       0.9544700
H        2.2076700      -1.9529700      -1.5033600
H        4.4543900       2.8547600      -0.0229200
H        3.3201400       2.9098700      -1.4014100
H       -0.6308600       1.1935700      -0.7746700
H        0.3973200       0.9880700       1.6886800
H        0.4579300      -0.7385100       2.0736600
H       -0.8913800      -3.6269800       0.0066100
H       -2.8535400      -1.6745800       1.5716500
H       -2.1689500       2.9791900      -0.0403000
H       -4.0403800       2.4670300       1.5360600
H        0.6625900      -2.3512200      -2.3084300
H       -2.4646600      -2.8147100      -0.1976800
H       -1.3835400      -3.0194100      -1.5830100
H       -4.3623700       0.1213100       2.3362700
H        1.1653100      -3.2449100      -0.8418600
H        1.9454500       0.2260900       2.1201800
