50
dipolar_001992 TS complex (tags stripped)
C        5.1412100      -1.3487300      -0.5233900
N        4.0008200      -1.2504400       0.3652500
C        2.7543300      -1.5674100      -0.0647000
O        2.6055000      -2.1338700      -1.1573300
C        1.6273500      -1.0725600       0.8125500
C        2.0575800      -0.9772000       2.2914300
N        0.3499700      -1.6375000       0.5849800
C        0.1864600      -2.8712700      -0.2011300
C       -0.7405500      -0.8133400       0.8991200
C       -0.7779800      -0.2034400       2.2958100
C       -2.0951200      -1.2899200       0.4426700
C       -2.3511000      -1.5526600      -0.9180700
C       -3.6330500      -1.8633600      -1.3697900
C       -4.7006100      -1.9440000      -0.4695900
C       -4.4624700      -1.7300700       0.8894700
C       -3.1778800      -1.4071600       1.3393900
C       -0.1411100       0.9273100      -0.1158500
Br      -0.9395100       2.5181500       0.6868400
C       -0.4735400       0.9127400      -1.6408200
C        0.1025600       2.1617400      -2.3323400
C        1.4300500       1.9844000      -2.3158000
C        1.6432400       0.6354400      -1.6162300
O        0.4710700      -0.0915400      -2.0584400
C        1.3253800       0.8074600      -0.0895200
C        2.2179200       1.7732300       0.6590100
H        6.0510400      -1.1304800       0.0399700
H        5.2115700      -2.3399600      -0.9688000
H        5.0493500      -0.6077200      -1.3440000
H        4.1143900      -0.7076100       1.2205000
H        2.9172300      -1.6697300       2.5585100
H        2.3502700       0.0083400       2.5972800
H        1.2626700      -1.3296800       3.0106100
H        1.0075900      -3.5652500      -0.0082600
H        0.2004500      -2.6678100      -1.3080700
H       -0.7540400      -3.3639100       0.0385700
H       -0.8587000      -0.9525100       3.1221700
H       -1.6315000       0.4437100       2.3454600
H        0.1218100       0.3849300       2.4768700
H       -1.5308400      -1.5100100      -1.6184100
H       -3.7898700      -2.0131100      -2.4325800
H       -5.7085400      -2.1554400      -0.8355000
H       -5.2983600      -1.7929000       1.6034600
H       -3.0430100      -1.2740000       2.4217400
H       -1.5039700       0.6692900      -1.8981300
H       -0.4704700       3.0085200      -2.7954500
H        2.2304400       2.6408000      -2.7452300
H        2.5557700       0.1070600      -1.8615200
H        1.8820200       1.9323700       1.6880100
H        3.2575200       1.3588500       0.7021200
H        2.3244700       2.7892900       0.2004900
