41
dipolar_002299 reactant_2 @ TS geom
C        0.7283500       0.2147700      -0.2605200
C        1.6247000      -0.9992200      -0.2224400
C        1.9379300      -1.6022300       1.0118300
C        2.8068400      -2.6963400       1.0613500
C        3.3702600      -3.2089700      -0.1127100
C        3.0685300      -2.6079400      -1.3361600
C        2.2083000      -1.5087900      -1.3889300
C        1.4490800       1.4889600      -0.0146600
C        2.8571400       1.4945800       0.1194500
C        3.5638700       2.6895600       0.2459400
C        2.8929700       3.9141300       0.2255200
C        1.5028300       3.9307100       0.0764200
C        0.7902600       2.7423600      -0.0354300
C       -0.7568500       0.0923900       0.1452200
C       -1.0845300       1.0882300       1.3292900
C       -0.3194900       0.9763900       2.6311600
O       -1.9977800       1.8885000       1.2255800
C       -1.2829600      -1.2847800       0.6325700
C       -2.3857200      -1.3097100       1.5134500
C       -3.0357300      -2.5004000       1.8445700
C       -2.6043800      -3.7131400       1.3044200
C       -1.5122700      -3.7116900       0.4357600
C       -0.8618400      -2.5196400       0.1061400
H        1.5209200      -1.2443400       1.9514900
H        3.0677200      -3.1826700       2.0202200
H        4.0504900      -4.0762400      -0.0964100
H        3.4944200      -2.9810800      -2.2694200
H        1.9593900      -1.0429600      -2.3306100
H        3.4099500       0.5550700       0.1434500
H        4.6492900       2.6625500       0.3456700
H        3.4417400       4.8507000       0.3069100
H        0.9564000       4.8704200       0.0308000
H       -0.2830400       2.7898000      -0.1776000
H        0.7393700       1.2299300       2.5340300
H       -0.7609500       1.7346300       3.3850700
H       -0.3976700      -0.0050800       3.0939100
H       -2.7847200      -0.3919400       1.9481800
H       -3.9074100      -2.4737800       2.5120300
H       -3.1269600      -4.6473200       1.5439100
H       -1.1710800      -4.6447600      -0.0172400
H       -0.0355300      -2.5718200      -0.5851400
