15
dipolar_002299 reactant_1 @ TS geom
C       -3.0249500       2.7344000      -1.3647800
C       -2.9595100       1.2669700      -1.0192900
O       -3.9516900       0.6549600      -0.6469300
C       -1.6562800       0.4716900      -1.2740200
C       -2.0127200      -0.7979400      -2.0837800
O       -0.8324100       1.3198200      -2.0626300
N        0.3682100       0.5850300      -2.2225800
C        1.2455200       1.4124500      -2.8108000
N        2.1010100       2.0644700      -3.2771600
H       -3.2488200       2.8764300      -2.4335800
H       -2.0893700       3.2725200      -1.1507200
H       -3.8562300       3.2094400      -0.7830800
H       -1.1034700      -1.4244800      -2.2112400
H       -2.3895200      -0.5797400      -3.1107000
H       -2.7680100      -1.3582500      -1.5510500
