22
dipolar_002349 reactant_2 @ TS geom
C       -0.4066200      -2.3185200       5.7320700
N       -0.9286500      -1.9605700       4.4225500
C       -0.6007200      -0.8007600       3.8247000
O       -0.0357200       0.1248500       4.4258700
C       -0.9438800      -0.6620600       2.3690900
N       -1.1106500       0.6510100       2.0225900
C       -1.2707000       0.9538500       0.6937600
C       -1.2531400       2.4378800       0.3919300
O       -2.1034500       2.9633200      -0.3252000
N       -0.2635300       3.1428200       0.9939300
C       -0.0209100       4.5308500       0.6412200
H       -0.5314500      -1.5135700       6.4644200
H       -0.8971600      -3.2244600       6.1050000
H        0.6943100      -2.5356200       5.6691300
H       -1.3797400      -2.6795800       3.8865800
H       -1.7301200      -1.3450900       1.9779700
H       -0.5968300       1.2947000       2.6513200
H       -2.1531000       0.4675600       0.2446900
H        0.5110300       2.6293400       1.3636500
H        0.7459700       4.9590300       1.3089400
H        0.3629700       4.6050300      -0.4033200
H       -0.9249900       5.1402400       0.7054700
