22
dipolar_002349 reactant_2 (FRAG2 relaxed, reordered to d) type=dipole
C       -1.2706400       0.8702300       0.1903400
N       -3.5873700       0.3626400      -0.0906000
C       -2.3112100      -0.0853100      -0.1507300
O       -2.0384200      -1.2614800      -0.4786300
C        1.1632400       0.9628600       0.3544600
N       -0.0247400       0.4152300       0.1271900
C        2.3104000       0.0914000       0.1620100
C        4.7472400      -0.1253500       0.2170800
O        2.1753100      -1.1005000      -0.1930700
N        3.5287100       0.6360100       0.3892400
C       -4.7094300      -0.4831100      -0.4367100
H       -3.7545600       1.3342900       0.1471000
H       -1.4573700       1.9030500       0.4826100
H       -5.6407500       0.0597800      -0.2333500
H        1.2296400       2.0053400       0.6639900
H        0.0315900      -0.5789000      -0.1603300
H        3.5865400       1.6118100       0.6594200
H        4.7467800      -1.0306700       0.8452900
H        4.8849600      -0.4455900      -0.8294000
H        5.6013600       0.4997400       0.5052900
H       -4.6963600      -0.7685600      -1.5024500
H       -4.7068400      -1.4107100       0.1572200
