26
dipolar_002349 reactant_1 (FRAG1 relaxed, reordered to d) type=dipolarophile
C        0.8133600       0.4094700      -1.7661900
C        0.9245100      -0.0416300      -3.1543500
C       -0.1155700      -1.2070800      -3.2477700
C        0.5607600       1.0658300      -4.1556700
C        0.5495500       0.4338000      -0.5802800
C       -0.1114900      -2.2613300      -2.1200000
C       -0.9883900      -2.0067600      -0.8607400
C       -0.2871100      -1.5980400       0.4516600
C       -0.0312800      -0.0910600       0.6208800
C        2.3509500      -0.5530400      -3.4311000
Br       1.1464100       0.2076000       2.2064500
Br      -1.7662900       0.8537700       0.9845400
H        0.5615200       0.6565200      -5.1778800
H        0.0710700      -1.7086400      -4.2119100
H       -1.1219100      -0.7618800      -3.3159900
H       -0.4391100       1.4755700      -3.9473600
H        1.2904300       1.8888800      -4.1133600
H       -1.7886100      -1.2846900      -1.0928100
H       -1.5057300      -2.9498800      -0.6273800
H       -0.4812300      -3.1929000      -2.5757300
H        0.9243000      -2.4834800      -1.8129700
H        2.6262000      -1.3701200      -2.7482300
H        0.6969200      -2.0906700       0.5066300
H        2.4122600      -0.9270200      -4.4649400
H       -0.8677100      -1.9415200       1.3202000
H        3.0862200       0.2569500      -3.3111300
