! wB97X-3c OptTS Freq TightSCF
%pal nprocs 8 end
%maxcore 4000
%geom
  Calc_Hess true
  Recalc_Hess 3
  TS_Mode {B 0 8} end
  MaxIter 200
end
* xyzfile 0 1 ts_guess.xyz
