22
dipolar_001833 reactant_2 (FRAG2 relaxed, reordered to d) type=dipolarophile
C        0.7299300       2.5475700       0.4391100
C       -1.5091700       0.1686400       0.2104000
O       -2.1680400       1.1430600       0.5430300
C        0.8050400       1.1630000      -0.0761600
C       -0.1070400       0.1722400      -0.1882500
C        2.1323200       0.5034000      -0.5297600
C        0.6967300      -1.0552000      -0.6855700
C        1.6261500      -1.4864300       0.4706600
O       -2.0269500      -1.0759200       0.1762700
O        1.6426100      -0.3899200      -1.5441500
C        2.5243500      -0.5021200       0.5749300
C       -3.4011800      -1.2122500       0.5543100
H       -0.2784900       2.8100000       0.7793800
H       -4.0479200      -0.6251400      -0.1143700
H        1.0491100       3.2611100      -0.3401400
H        2.9082800       1.1808100      -0.9028900
H        3.3289400      -0.3606200       1.2954700
H        0.1366500      -1.8359000      -1.2085300
H        1.4940200      -2.3783600       1.0822300
H       -3.6362500      -2.2794300       0.4652200
H       -3.5541600      -0.8766200       1.5906900
H        1.4425900       2.6666400       1.2747200
