30
dipolar_001833 reactant_1 (FRAG1 relaxed, reordered to d) type=dipole
C        3.7099800      -2.0707200       0.6119700
N        3.9371300      -0.8287700      -0.1057200
C        1.6077700      -0.2266800      -0.1122000
O        3.2810000       1.1096500      -1.1009800
C       -0.6084600       0.8122800      -0.3337900
N        0.7234400       0.6810100      -0.4791900
C       -1.4108600      -0.2323500       0.3284700
C        2.9952900       0.0670700      -0.4752200
C       -1.1135400       2.0497500      -0.9067900
O       -0.3270800       2.8673700      -1.4217400
C       -2.2900400       0.0917200       1.3785200
C       -2.5938500       2.3325300      -0.8884800
C       -1.3186200      -1.5779500      -0.0793200
C       -3.0593300      -0.8969100       1.9957000
C       -2.9594300      -2.2284200       1.5812700
C       -2.0852700      -2.5647800       0.5419400
H        4.6771100      -2.5666100       0.7589800
H        3.2621800      -1.8970200       1.6031900
H        4.8873000      -0.5915400      -0.3753300
H        1.2856000      -1.1097000       0.4323800
H       -2.3614400       1.1258000       1.7201100
H       -3.7346900      -0.6256100       2.8105800
H       -0.6527500      -1.8512000      -0.9007200
H        1.1368000       1.4906800      -0.9798000
H        3.0565000      -2.7571700       0.0505900
H       -3.2001700       1.4205500      -0.9703700
H       -2.8318700       3.0221700      -1.7101000
H       -3.5592500      -3.0018700       2.0665900
H       -2.0050200      -3.6018600       0.2075100
H       -2.8634300       2.8284800       0.0590500
