30
dipolar_001833 reactant_1 @ TS geom
C       -2.2063200       4.5626000       2.4474500
N       -1.8994900       3.7670800       1.2583000
C       -0.6242400       3.3539100       1.0443800
O        0.3387100       3.9054000       1.6037000
C       -0.3597100       2.3169100      -0.0543800
N       -1.4637900       1.4835400      -0.4421000
C       -1.6834900       0.3173300       0.2720200
C       -1.6833600       0.3393600       1.7501100
C       -2.1980600      -0.8602400       2.5167200
O       -1.3064500       1.3248800       2.3974600
C       -2.4231500      -0.7155700      -0.5043600
C       -2.1710500      -2.0854500      -0.3030800
C       -2.7870400      -3.0529700      -1.0965200
C       -3.6690200      -2.6803800      -2.1159000
C       -3.9392700      -1.3250800      -2.3234500
C       -3.3307000      -0.3529100      -1.5240800
H       -3.2647000       4.8997500       2.4704800
H       -1.5758900       5.4748200       2.5048000
H       -2.0298400       4.0072300       3.4102600
H       -2.6889800       3.1978000       0.9562900
H       -0.1393500       2.9424500      -0.9951400
H       -1.4074700       1.2477100      -1.4378800
H       -3.1227500      -1.2896300       2.0944300
H       -1.4382900      -1.6325100       2.5446500
H       -2.4000100      -0.5264000       3.5527900
H       -1.4703700      -2.3777800       0.4651400
H       -2.5515500      -4.0996100      -0.9212300
H       -4.1311500      -3.4497000      -2.7446200
H       -4.6296800      -1.0307500      -3.1304900
H       -3.5904500       0.6974400      -1.7064800
