21
dipolar_002766 reactant_2 @ TS geom
C       -6.7026900      -2.4577900       2.3649900
C       -6.8975900      -1.2522300       2.6908200
C       -6.4056800       0.1487100       2.8501600
C       -5.6227400       0.3024400       4.0830100
N       -4.9763500       0.4506200       5.0366900
C       -5.5912500       0.6532700       1.6264400
C       -4.2124400       0.0365600       1.3833400
C       -4.1497100      -1.4039700       0.8515200
C       -4.1968500      -2.5284400       1.9063200
C       -5.5246600      -3.2792600       2.0377300
Br      -5.2568300      -4.6383200       3.4966200
Br      -5.8209500      -4.3167600       0.3141200
H       -7.2909400       0.8301000       2.9169100
H       -5.4198100       1.7642900       1.7536600
H       -6.1920300       0.5450100       0.7283300
H       -3.5972900       0.0958300       2.3340100
H       -3.6679400       0.6807200       0.6810100
H       -4.9025700      -1.5535100       0.0896900
H       -3.1647300      -1.4866100       0.3014800
H       -3.3630000      -3.3074400       1.6144800
H       -3.8728200      -2.1741500       2.8699400
