30
dipolar_002766 reactant_1 (FRAG1 relaxed, reordered to d) type=dipole
C        1.2447000       1.2105200       0.2744200
N        2.4903800       1.7262700       0.3242400
C        1.1560300      -0.2454000       0.0189500
O        0.2367300       1.9259200       0.4636200
C        2.2706400      -1.0885600      -0.2668000
C       -1.1330600      -0.1561400      -0.4543900
C        2.0530400      -2.5274800      -0.7007800
C       -2.5794300      -0.3713300      -0.1868900
O        3.4612400      -0.6805000      -0.2363800
C       -0.3760400      -1.8918200       1.0808000
O       -3.0291200      -1.1714300       0.6413000
N       -3.3666000       0.4069400      -0.9552100
C       -4.8098800       0.3561200      -0.8461500
N       -0.1484600      -0.7829500       0.1286700
C        2.7241400       3.1190300       0.6282700
H       -0.9091900      -1.4987000       1.9551000
H        2.4589300       3.3705200       1.6701200
H        0.5946500      -2.2780100       1.3972300
H        3.2525200       1.0538900       0.1961900
H        2.3131000      -3.2079900       0.1264300
H        1.0344600      -2.7567900      -1.0376700
H       -0.9800400      -2.6768000       0.6148200
H       -0.8622600       0.5863900      -1.2018100
H       -2.9410400       1.0604400      -1.6054500
H       -5.2467400       1.0325900      -1.5897700
H       -5.1439100       0.6634800       0.1580400
H       -5.1806100      -0.6650300      -1.0265300
H        2.7556700      -2.7338500      -1.5215700
H        3.7887600       3.3425300       0.4809000
H        2.1329500       3.7759500      -0.0296300
