27
dipolar_002501 reactant_1 (FRAG1 relaxed, reordered to d) type=dipolarophile
C       -0.9984900      -1.3383700       0.8701800
N        0.3628500       3.2215700      -0.0088200
C       -0.6869200      -0.2895000       0.3873300
O       -1.5818600       2.2763100       0.6669800
C       -0.4430600       2.1745400       0.2101600
Br       0.1045000       0.6403000      -2.1456900
C        1.5726900       0.5448400       0.3971200
C        2.1041200      -0.8979300       0.2991500
C        1.7954100      -1.8786900       1.4647600
C        0.7625000      -2.9946000       1.2183300
C        0.1355700       0.7858900      -0.1194300
F       -1.5227200      -3.6222700       1.1009300
F       -0.8789000      -2.5091600       2.8679900
C       -0.6858700      -2.6199100       1.5106800
C       -0.0752800       4.5815500       0.2481600
H        0.8022900      -3.3358100       0.1724400
H        1.5183400      -1.3188800       2.3736400
H        1.5723800       0.8705100       1.4512800
H        1.7936800      -1.3398900      -0.6620300
H        1.2780300       3.0746400      -0.4198900
H       -0.4288800       4.6871700       1.2846600
H        2.2527500       1.2223500      -0.1407900
H        3.1981100      -0.8045400       0.2356500
H        2.7362500      -2.3904900       1.7141400
H        0.7704800       5.2608300       0.0889500
H        0.9786300      -3.8642400       1.8592100
H       -0.8977400       4.8717000      -0.4254900
