22
dipolar_002501 reactant_2 (FRAG2 relaxed, reordered to d) type=dipole
C       -1.7751500       0.4948100       0.1247300
C       -2.1827200       2.8130400       0.3466600
C       -0.7345100      -0.5241700      -0.0224200
O       -1.2528200       1.7328200       0.2009200
C        1.6593000       0.1671200      -0.0923600
O        0.0571500      -2.7107700      -0.2620400
O        3.8878700      -0.3972700      -0.1893400
C        3.0726200       0.5046600      -0.0857200
N        0.5268500      -0.1155400      -0.0550700
C       -0.9246400      -1.9774600      -0.1392300
C       -2.3222900      -2.5329200      -0.1039000
C        3.3792900       1.9627300       0.0464600
O       -2.9739000       0.2746000       0.1744400
H       -1.5786900       3.7270900       0.3842100
H        2.8696600       2.3797000       0.9298800
H       -2.7618000       2.7038300       1.2753500
H        4.4660200       2.0961400       0.1286900
H        2.9984200       2.4985900      -0.8389900
H       -2.8216400      -2.2664100       0.8396100
H       -2.9309900      -2.1059700      -0.9147600
H       -2.2671500      -3.6245300      -0.2067100
H       -2.8719900       2.8500300      -0.5096100
