58
dipolar_002415 TS complex (tags stripped)
C        6.2199800      -0.7862000       1.1307000
N        4.9147500      -0.9463300       0.5351800
C        3.9673400       0.0199600       0.6235700
O        4.1769400       1.0870100       1.2368800
C        2.7020600      -0.2465300      -0.0358000
C        2.1839200      -1.3757700      -0.5803900
O        2.7709500      -2.5602500      -0.7339700
C        2.0184700      -3.6186900      -1.3469300
C        0.6776200      -1.0901600      -0.7858000
O        0.7277000       0.3117300      -1.0624100
C        1.4683000       0.6637700       0.1255100
C        0.6188100      -0.0358300       1.2240100
C        0.1573700      -1.1128500       0.6739300
C       -2.3841300      -0.2758800      -0.0047000
C       -2.7683300      -0.8882700       1.2987700
O       -3.2749100      -2.0263000       1.3343200
N       -2.6463500      -0.1295700       2.4050100
C       -3.1266700      -0.5924100       3.6863700
C       -2.6175900      -1.0066100      -1.2559800
C       -2.3751800      -2.3934800      -1.3959300
C       -2.6578900      -3.0380600      -2.6014200
C       -3.1799400      -2.3232500      -3.6862900
C       -3.4024300      -0.9493300      -3.5621000
C       -3.1244600      -0.3005800      -2.3609000
N       -1.7897600       0.9179700      -0.0893500
N       -1.4093500       1.6724400       0.8999400
C       -0.8117200       2.8843500       0.6011700
C       -1.0072100       3.5924800      -0.6007200
C       -0.4244700       4.8463000      -0.7795000
C        0.3682300       5.4181600       0.2212700
C        0.5831100       4.7122800       1.4133600
C        0.0021500       3.4613500       1.6072500
H        6.7256500       0.1067100       0.7304700
H        6.8179000      -1.6689100       0.8907800
H        6.1564300      -0.6783700       2.2212300
H        4.6650000      -1.8136600       0.0661100
H        2.6782100      -4.4884600      -1.3410200
H        1.7603800      -3.3497000      -2.3833100
H        1.1002400      -3.8428500      -0.7792500
H        0.1541400      -1.6364700      -1.5954200
H        1.6692600       1.7538800       0.1583100
H        0.5540600       0.3421600       2.2279300
H       -0.3812600      -1.9379300       1.0955200
H       -2.1188300       0.7397400       2.2940200
H       -4.2026400      -0.8485000       3.6401800
H       -2.5861500      -1.4800300       4.0297300
H       -2.9969700       0.2153400       4.4192900
H       -1.9357700      -2.9906000      -0.5811100
H       -2.4822800      -4.1214200      -2.7116900
H       -3.4275400      -2.8201200      -4.6221800
H       -3.8225200      -0.3665400      -4.3638100
H       -3.3116100       0.7576900      -2.2297000
H       -1.5532400       1.2164200      -1.0509500
H       -1.6400600       3.1600000      -1.3625900
H       -0.6345200       5.3771800      -1.6958200
H        0.7932900       6.4103500       0.0725300
H        1.2076100       5.1634000       2.2012600
H        0.2078200       2.9105500       2.5413500
