16
dipolar_000036 reactant_1 (FRAG1 relaxed, reordered to d) type=dipolarophile
C        2.3671500      -0.6387600       0.4979200
C        1.0217100      -0.2308000       0.0200000
C       -1.0956300      -1.5317400       0.3408800
F        0.6258900       2.0058500       0.8400500
C       -1.7834300      -0.4025000       0.5339700
O       -0.7304300      -0.2062200      -1.4958000
C        0.3090900       0.8843200       0.1858200
C       -1.0956300       0.6369500      -0.3877200
C       -0.0005700      -1.1602600      -0.6889100
H        3.0068000      -0.9769300      -0.3349700
H        2.8752400       0.1890000       1.0141900
H        2.2865700      -1.4865500       1.2016000
H       -2.6106800      -0.1916300       1.2107100
H       -1.6731300       1.5177900      -0.6897800
H        0.4223700      -1.9722500      -1.2915200
H       -1.2055800      -2.5050900       0.8180000
