12
dipolar_000036 reactant_2 (FRAG2 relaxed, reordered to d) type=dipole
N       -1.6971100      -0.7215000      -0.1366200
O       -0.3204700      -0.8384100      -0.1100300
C        0.4230400       0.1919000       0.0355700
C       -0.2116700       1.5147200       0.1753400
C        1.8878400      -0.0448400       0.0504500
H       -0.8534900       1.7088900      -0.7045200
H       -0.9041000       1.5008500       1.0379500
H        0.5332400       2.3111900       0.2920900
H        2.3773600       0.5257900      -0.7581700
H        2.1114300      -1.1132700      -0.0720500
H        2.3251600       0.3132600       0.9989800
H       -1.9334500      -1.7140800      -0.2635900
