12
dipolar_000036 reactant_2 @ TS geom
N       -1.6284000       1.3199800       2.2643100
O       -2.3249000       0.2337900       1.7572200
C       -2.8400000       0.1079400       0.5994700
C       -2.6530300       1.1597600      -0.4305700
C       -3.5844800      -1.1585000       0.3547400
H       -1.3371800       1.8389700       1.3842000
H       -2.9595600       0.7806100      -1.4354800
H       -1.6180900       1.5706700      -0.5498700
H       -3.3061100       1.9591900      -0.1294400
H       -4.6029700      -0.8664300       0.2177600
H       -3.4550500      -1.8442600       1.1909400
H       -3.2455700      -1.6784700      -0.5852300
