23
dipolar_001736 reactant_1 (FRAG1 relaxed, reordered to d) type=dipole
C        2.8640000       0.1659500       0.0899600
N        0.5299200      -0.1759400       0.0812300
C        1.7492400      -0.6844800       0.3557200
O        2.7197600       1.3184300      -0.3780900
C       -0.6820500      -0.6795300       0.1986100
C       -1.7425400       0.2703800      -0.2088400
N       -3.0224400      -0.1248700      -0.0721100
C       -0.8601600      -2.0641900       0.7099600
C       -4.1231500       0.7458900      -0.4320700
C        4.2448200      -0.3641700       0.3930600
O       -1.4408100       1.3926000      -0.6594500
H        4.7351900       0.2992400       1.1245000
H        4.8544300      -0.3359100      -0.5249800
H        4.2319200      -1.3894700       0.7876600
H        1.8332700      -1.6892100       0.7619800
H       -4.0519100       1.0577300      -1.4857600
H        0.5515200       0.7889000      -0.2911000
H       -0.2376800      -2.7675500       0.1294200
H       -3.2292600      -1.0256200       0.3425200
H       -0.5305000      -2.1401400       1.7619100
H       -1.8987400      -2.4097400       0.6500500
H       -4.1371000       1.6570600       0.1882600
H       -5.0656300       0.2048500      -0.2856900
