25
dipolar_001736 reactant_2 (FRAG2 relaxed, reordered to d) type=dipolarophile
C       -1.9061100      -0.5591600       1.1672600
C       -3.2714300      -1.0348500       1.0069600
C       -3.3468200      -1.6921400      -0.3953800
C       -2.7476200      -0.8715900      -1.5594100
C       -1.2342600      -1.0296200      -1.8857200
C       -0.2618600       0.1036100      -1.4807700
C        0.3080500      -0.0203800      -0.0591600
C       -0.7838800      -0.2054600       0.8630700
Br       1.3493100       1.6882500       0.3690800
C        1.4159300      -1.0918700       0.0723200
C        1.7423300      -1.5813400       1.4532400
O        1.9579300      -1.5216300      -0.9260700
H       -2.8468000      -2.6741100      -0.3514000
H       -3.5707000      -1.7495200       1.7895900
H       -3.2957900      -1.1805500      -2.4631200
H       -4.4103300      -1.8909000      -0.6038100
H       -1.1470400      -1.1041000      -2.9807400
H       -0.8648000      -1.9945200      -1.5001700
H        1.0046000      -2.3584800       1.7159600
H        0.5918200       0.1203800      -2.1724300
H       -2.9898700       0.1969200      -1.4219400
H       -0.7740500       1.0730600      -1.5630800
H        1.6628300      -0.7852800       2.2056100
H        2.7440000      -2.0304900       1.4624400
H       -3.9673500      -0.1804800       1.0661900
