23
dipolar_001736 reactant_1 @ TS geom
C       -1.6825000      -3.6021000       1.7568500
N       -1.2988900      -3.1389900       0.4421200
C       -0.0272500      -3.2307500      -0.0078000
O        0.8525700      -3.8036500       0.6522000
C        0.2463000      -2.7280200      -1.3866800
C        1.3876500      -3.3345900      -2.1363800
N       -0.4086100      -1.7109200      -1.9283500
C       -1.4170200      -0.8893100      -1.5230200
C       -1.8149500       0.1258700      -2.4211500
C       -2.9539200       1.0216800      -1.9839100
O       -1.3065900       0.2495000      -3.5711400
H       -1.1204100      -3.0886400       2.5324600
H       -1.5230200      -4.6908500       1.8627000
H       -2.7548900      -3.3950500       1.8778700
H       -1.9903100      -2.7367800      -0.1689100
H        1.7681600      -2.6542900      -2.9156400
H        2.2531800      -3.5529800      -1.4474700
H        1.0338000      -4.2401800      -2.5303000
H       -0.1445300      -1.4713800      -2.8801500
H       -1.7495800      -0.9059700      -0.4598700
H       -2.8704800       2.0265800      -2.4215100
H       -3.0403100       1.1125800      -0.8790100
H       -3.8760100       0.5583300      -2.3519900
