31
dipolar_002260 reactant_1 (FRAG1 relaxed, reordered to d) type=dipole
C        1.2663200       2.5410900      -3.7468500
N        1.0527100       1.5931100      -2.6746500
C        1.6458700       0.3742700      -2.6823300
O        0.5686700      -0.0836000      -0.6376000
C        1.3928500      -0.5102400      -1.5521700
O        1.3859200      -2.4782500       0.4204700
C        0.0428700      -0.5333800       0.4827100
C        0.4225700      -1.8802500       0.9353400
O        2.3830100      -0.0040200      -3.6132300
N       -0.3281800      -2.4574000       1.9025900
C       -0.0362700      -3.7953300       2.3751000
C       -0.9102100       0.3955700       1.0892600
C       -1.1175200       0.4596000       2.4845700
C       -2.0165500       1.3775500       3.0291400
C       -2.7198700       2.2592400       2.2032700
C       -2.5141400       2.2155700       0.8190000
C       -1.6259000       1.2961900       0.2663200
H        2.3222200       2.8538800      -3.8135600
H        0.9838700       2.1114900      -4.7210900
H        0.6498900       3.4297600      -3.5637200
H        0.5122300       1.8731200      -1.8633800
H        1.8537300      -1.4902500      -1.4717200
H       -1.1640100      -1.9922400       2.2368600
H       -0.1801500      -4.5491300       1.5827600
H        1.0048700      -3.8707200       2.7245100
H       -0.7077100      -4.0291100       3.2102700
H       -0.5499500      -0.1877300       3.1535400
H       -2.1555100       1.4120400       4.1121900
H       -3.4215600       2.9770400       2.6338000
H       -3.0595900       2.8978500       0.1626700
H       -1.4869700       1.2572600      -0.8153300
