18
dipolar_002260 reactant_2 @ TS geom
C        0.1487600      -1.1775700       0.2704600
C        0.9794800      -1.5432600       1.3606700
N        1.7106400      -1.8585900       2.2169000
C        0.1964800      -1.9840400      -1.0393200
C       -0.5996300      -3.2995000      -0.7666900
C       -2.0625800      -2.7926400      -0.6118600
C       -1.9337500      -1.2524000      -0.8366700
C       -0.8217800      -1.2122100      -1.9028100
C       -1.1729800      -0.6523700       0.3613800
Br      -2.1026800      -0.6696100       2.0498000
H        1.1911100      -2.1426900      -1.4417600
H       -0.4990300      -3.9953600      -1.6999100
H       -0.2483700      -3.9013800       0.0586000
H       -2.5301100      -3.1287600       0.3036300
H       -2.7276000      -3.2470200      -1.4584500
H       -2.8938500      -0.7819300      -1.0354800
H       -1.1039200      -1.7441000      -2.8073400
H       -0.5234600      -0.2005200      -2.1166800
