31
dipolar_002260 reactant_1 @ TS geom
C       -4.4003700       2.4933900      -0.8539800
N       -3.1562600       2.2200400      -0.1587800
C       -2.0312000       1.8962000      -0.8290100
O       -1.9326800       1.9735800      -2.0605200
C       -0.9279000       1.3688400       0.0302900
O        0.2349700       1.3945700      -0.6413800
C        1.3829900       0.8616200      -0.2189000
C        1.8138700       1.1973700       1.1811300
O        0.9830500       1.4877900       2.0553900
N        3.1330500       1.1914800       1.4393800
C        3.6264400       1.4053600       2.7902900
C        2.2923300       0.5545600      -1.3339700
C        3.3545700      -0.3587100      -1.1682200
C        4.1382200      -0.7382700      -2.2584200
C        3.8784700      -0.2224100      -3.5316000
C        2.8237500       0.6805600      -3.7081700
C        2.0356000       1.0658700      -2.6249000
H       -5.1369900       2.8541900      -0.1437500
H       -4.2645400       3.2215700      -1.6591300
H       -4.7860700       1.5520800      -1.3186800
H       -3.1568300       2.1370900       0.8396600
H       -0.8564600       1.6939000       1.0974800
H        3.8260800       1.0838500       0.7049800
H        3.4207000       2.4129400       3.1804000
H        3.1462700       0.6779500       3.4853100
H        4.7138800       1.2305300       2.8241700
H        3.5364300      -0.7805600      -0.1904500
H        4.9328700      -1.4597800      -2.1024400
H        4.4789500      -0.5531200      -4.3846900
H        2.6049300       1.0640700      -4.7170000
H        1.2177600       1.7786300      -2.7910300
