48
dipolar_002819 TS complex (tags stripped)
C       -3.6566700       3.5609700       2.7055700
O       -2.4132900       3.0146000       2.2500700
C       -1.9396700       1.9485400       2.9096800
O       -2.4442300       1.4872500       3.9351500
C       -0.8474300       1.3200400       2.2105400
N        0.3531800       1.4883200       2.0546500
C        1.5554800       1.5865500       1.6159600
C        1.8495500       2.2691000       0.3552200
C        3.1731200       2.2747000      -0.1246900
C        3.4758900       2.8555400      -1.3566800
C        2.4659300       3.4437900      -2.1265600
C        1.1482500       3.4492000      -1.6519900
C        0.8382800       2.8697900      -0.4221900
C        0.2273500      -0.7887000      -0.0819400
C       -0.8731200      -0.3060900       0.0365700
C       -2.2102700       0.1278200      -0.3740500
F       -2.3329800       1.5162100      -0.3035600
C       -3.2690600      -0.5334200       0.5235500
O       -3.3909400      -1.7352600       0.5855500
O       -3.9807100       0.3433500       1.2101400
C       -4.9156800      -0.1946200       2.1674000
C       -2.3262300      -0.3067200      -1.8516700
C       -1.1753000       0.2180300      -2.7462200
C        0.0147100      -0.7179500      -3.0831600
C        1.3119700      -0.7142100      -2.2472200
C        1.2607900      -1.4004500      -0.8747600
Br       3.0347100      -1.3611000      -0.0315300
Br       0.7602400      -3.3894100      -1.0861700
H       -3.5054700       3.8226000       3.7715100
H       -4.4510600       2.8286300       2.6075600
H       -3.8155100       4.4363900       2.1070000
H        2.3459700       1.0309200       2.1298500
H        3.9595700       1.7675100       0.4437800
H        4.5121000       2.8459200      -1.7263100
H        2.7142000       3.9262900      -3.0785900
H        0.3664400       3.9423900      -2.2314500
H       -0.1861200       2.8769100      -0.0674400
H       -5.4093400       0.6621400       2.6322000
H       -5.6585200      -0.8371400       1.6620900
H       -4.3857500      -0.7889500       2.9323300
H       -2.2784800      -1.4498300      -1.8093400
H       -3.2746400      -0.0338300      -2.1820500
H       -1.6586200       0.4572300      -3.6822800
H       -0.8188000       1.1818000      -2.3285200
H        0.3770900      -0.3709200      -4.0748600
H       -0.3166600      -1.7268100      -3.2072400
H        1.6337600       0.3548000      -2.0354200
H        2.1098000      -1.1770500      -2.7873800
