30
dipolar_001399 reactant_1 @ TS geom
C        2.5042400      -3.4072500       0.5825100
N        1.4913100      -2.4315600       0.2645800
C        1.7265300      -1.4110900      -0.5920800
O        2.8489000      -1.2879400      -1.1317800
C        0.6082800      -0.5320400      -0.9680600
C        0.7348900       0.1548600      -2.3501400
C        0.0586500      -0.8393000      -3.3255700
C       -1.2429800      -0.7708300      -3.0252700
C       -1.3237500       0.2742400      -1.8846700
O       -0.2754000       1.1608900      -2.2596200
C       -0.6954500      -0.4362600      -0.6386700
C       -1.5768800      -1.0660900       0.3453800
C       -2.9306700      -1.2713300      -0.0131500
C       -3.8041300      -1.9704800       0.8175000
C       -3.3629100      -2.4728500       2.0458700
C       -2.0423500      -2.2424700       2.4401900
C       -1.1667700      -1.5407800       1.6119300
H        2.7789500      -3.9738100      -0.3254100
H        2.0689100      -4.0919600       1.3107300
H        3.3827600      -2.9265000       0.9805300
H        0.5417300      -2.5178100       0.6368300
H        1.7163600       0.6019200      -2.6293900
H        0.6201800      -1.5310600      -3.9146900
H       -2.0430400      -1.4023300      -3.3065000
H       -2.2699300       0.8148900      -1.7515900
H       -3.2862400      -0.8837700      -0.9660400
H       -4.8175000      -2.1284600       0.4769800
H       -4.0403400      -3.0393700       2.6738300
H       -1.6841900      -2.6161300       3.4015900
H       -0.1552300      -1.3456700       1.9866000
