21
dipolar_001399 reactant_2 (FRAG2 relaxed, reordered to d) type=dipole
C        1.0886700       0.0834400      -0.0761200
C        2.4445400      -0.2600200       0.4847200
C        0.9602400       0.9898900      -1.1194200
N        0.8495500       1.7495800      -2.0177300
N       -0.0620100      -0.6102900       0.3445300
C        0.0838200      -2.0492600       0.6305100
C       -1.2648900      -0.0605000       0.4348000
C       -2.4763900      -0.9244300       0.5961900
C       -1.4229900       1.4170000       0.4026400
H        2.8926100      -1.1825900       0.0686200
H        1.1418400      -2.2888400       0.7592500
H        2.4223600      -0.3706200       1.5824000
H       -0.4583200      -2.3176700       1.5449500
H       -2.5686100      -1.2957100       1.6333400
H       -0.3097900      -2.6354700      -0.2121600
H       -2.3516400       1.6995300       0.9190700
H       -3.3808600      -0.3440700       0.3721000
H       -2.4558100      -1.8063500      -0.0622200
H       -1.4695200       1.8296400      -0.6223300
H       -0.5550300       1.8998100       0.8834100
H        3.1434600       0.5594000       0.2585800
