15
dipolar_001108 reactant_1 (FRAG1 relaxed, reordered to d) type=dipole
C        1.4931900       0.4386100       0.1980700
N        2.2605100      -0.5963700       0.5543600
C        0.0346900       0.1263500      -0.0192600
O       -0.3452900      -1.0878200       0.1592200
C       -0.8118900       1.2024900      -0.4014500
C        3.6835600      -0.4717800       0.8067300
N       -1.5303000      -1.7107900       0.0607600
O        1.8537500       1.6037300       0.0324800
N       -3.6052600      -0.5056300      -0.6026200
C       -2.5682200      -0.9635400      -0.3008900
N       -1.4247800       2.1419100      -0.7096700
H        4.2523300      -1.1263500       0.1292200
H        3.9866100       0.5679700       0.6407300
H        1.8297400      -1.5118400       0.6557900
H        3.9167200      -0.7539200       1.8447200
