18
dipolar_001108 reactant_2 (FRAG2 relaxed, reordered to d) type=dipolarophile
C        0.6459800      -0.8281800      -0.5886100
C       -0.2345700       0.1415600      -0.2415000
N        3.1718100      -0.9524300      -0.0841200
C       -1.6283600      -0.3290300      -0.5876100
C       -1.9436300      -1.4682700       0.4398400
C       -0.9570300      -2.5975200       0.0289500
C       -0.1906200      -1.9701100      -1.1765700
C       -1.3151300      -1.1585200      -1.8522900
C        2.0283500      -0.8849800      -0.3008300
Br       0.1320600       1.7087300       0.7207400
H       -2.3881700       0.4570000      -0.6579600
H       -2.9906000      -1.7809100       0.3190400
H       -1.8092600      -1.1292500       1.4764500
H       -0.2725400      -2.8876600       0.8378900
H       -1.4939800      -3.4982800      -0.3019100
H        0.3720300      -2.6796000      -1.7937700
H       -2.1630000      -1.7829600      -2.1697700
H       -0.9614900      -0.5448800      -2.6928700
