26
dipolar_000084 TS complex (tags stripped)
C       -3.0438700      -1.5885400       1.8425400
N       -2.0332300      -0.5734300       1.6274100
C       -1.9535400       0.0928600       0.4479900
O       -2.7584900      -0.1365100      -0.4686200
C       -0.8963100       1.1102700       0.3201200
C       -0.5534200       1.9088000      -0.8520000
C       -1.3807000       1.7681100      -2.1051600
O        0.4113800       2.6847100      -0.8202600
N        0.0487600       1.1475400       1.2485900
C        1.0093900       1.2347100       1.9837700
C        2.1049300      -0.6858000       0.2010100
O        3.1492700      -0.4974400       0.9778400
C        4.1678600      -1.4067100       0.4539300
C        1.2329200      -0.9315300      -0.5563500
Cl       0.1943500      -1.5435800      -1.7271500
H       -2.9720700      -1.9436800       2.8789100
H       -2.9132600      -2.4435400       1.1640300
H       -4.0565700      -1.1814700       1.6820600
H       -1.3421000      -0.4161100       2.3525300
H       -1.3295300       0.7331300      -2.4935700
H       -2.4325800       1.9679800      -1.8890600
H       -0.9937100       2.4647800      -2.8578800
H        1.7191800       1.4293400       2.6417500
H        5.0274000      -1.3112200       1.0286200
H        3.7385500      -2.4456200       0.4737400
H        4.3261800      -1.1438700      -0.6258200
