10
dipolar_002277 reactant_2 (FRAG2 relaxed, reordered to d) type=dipole
C       -0.0420000       1.2276600       0.2049700
N        0.1544500       2.3700300       0.3418800
C       -0.3320500      -0.1555400       0.0488000
C       -1.7400600      -0.6613100       0.2257500
C        1.5198800      -1.6801600      -0.6582200
N        0.6496500      -0.9490200      -0.2459500
H       -2.0944300      -0.4850800       1.2541600
H       -1.7775900      -1.7396300       0.0203100
H       -2.4271400      -0.1442200      -0.4631700
H        2.2060200      -2.2522300      -0.0148800
