53
dipolar_002277 TS complex (tags stripped)
C       -2.9164900       1.3427700      -0.6872300
N       -1.7977300       0.4195600      -0.6522700
C       -0.7548100       0.5256100      -1.4988900
O       -0.7321900       1.3298000      -2.4311700
C        0.4264400      -0.4254800      -1.1743100
C       -0.1402400      -1.8656000      -1.3651400
O       -0.1704900      -2.7115800      -0.4660000
N       -0.6205500      -2.1061800      -2.5979200
C       -1.2008400      -3.3873700      -2.9693400
C        1.6057200      -0.1905200      -2.1522600
C        2.7143000      -1.2524900      -2.1738900
C        3.6219300      -1.4337500      -0.9413500
C        3.1173600      -2.4105400       0.1404400
C        2.5374200      -1.7812500       1.4478900
C        1.8124100      -2.9156700       2.2087600
O        2.2671400      -4.0282600       2.3189700
O        0.6515000      -2.5294800       2.7242500
C       -0.1111100      -3.5260000       3.4242400
C        3.6998700      -1.3424300       2.3759900
F        4.6110300      -2.3096000       2.5525800
F        4.3497100      -0.2753300       1.8863600
F        3.2501600      -1.0163600       3.6048200
C        1.6514500      -0.6138800       1.1439900
C        0.9173600      -0.1298600       0.2319400
C        0.4137800       1.6532600       0.6799200
N        0.7466400       1.9258200       1.8600100
C        1.3076100       1.2390200       2.8642300
C        0.4004900       0.5994400       3.8923900
C        2.5702200       1.7606000       3.3056000
N        3.5871900       2.1856300       3.6841900
H       -2.6265200       2.3564400      -0.3244200
H       -3.7142800       0.9662300      -0.0385200
H       -3.2895400       1.4454200      -1.7075700
H       -1.6912400      -0.1751000       0.1715200
H       -0.5898000      -1.3851900      -3.3342200
H       -1.5341900      -3.3551100      -4.0413500
H       -2.0850700      -3.6349600      -2.3633600
H       -0.4770200      -4.2067600      -2.8776100
H        2.0292100       0.7846500      -1.9126600
H        1.2040500      -0.1118000      -3.1799200
H        2.2825300      -2.2452900      -2.4409900
H        3.3625300      -0.9917800      -3.0171000
H        4.5825300      -1.8412600      -1.3205700
H        3.8693200      -0.4652500      -0.5045900
H        3.9651800      -3.1091800       0.4371300
H        2.3554500      -3.0696600      -0.2693600
H        0.4616100      -3.9316200       4.2728900
H       -1.0019500      -3.0022800       3.7777800
H       -0.3842700      -4.3398900       2.7391400
H       -0.1911400       2.6087300       0.1240900
H       -0.0056800       1.2950600       4.6610600
H        0.9749200      -0.1737300       4.4040400
H       -0.4449400       0.1387200       3.3637500
