25
dipolar_001221 reactant_2 @ TS geom
C        1.0398200      -0.6119500      -0.1967500
C        2.4988400      -0.2968900      -0.0772100
C        3.1323200       0.6954200      -0.8496800
C        4.4395200       1.0942800      -0.5616000
C        5.1333900       0.5242900       0.5107000
C        4.5183600      -0.4639600       1.2836100
C        3.2165800      -0.8747000       0.9859600
N        0.4856600      -0.9582000      -1.4624200
C        1.1064600      -0.6379300      -2.7507900
C       -0.8387600      -1.3136800      -1.4117600
C       -1.7125600      -1.1648900      -2.6282800
C       -1.1634700      -2.4404700      -0.5791000
N       -1.4622900      -3.3665400       0.0601600
H        0.7588900      -1.4261300       0.5039400
H        2.6086000       1.1612800      -1.6847600
H        4.8994600       1.8804000      -1.1603900
H        6.1362000       0.8734800       0.7588200
H        5.0386000      -0.8950000       2.1410000
H        2.7415100      -1.6532700       1.5916200
H        2.1852700      -0.8274400      -2.7213900
H        0.9477400       0.4166100      -3.0521300
H        0.6838100      -1.2747900      -3.5555600
H       -1.5696700      -0.1725500      -3.0668500
H       -1.5283200      -1.9145400      -3.4713500
H       -2.7483200      -1.2901900      -2.3358700
