23
dipolar_001221 reactant_1 (FRAG1 relaxed, reordered to d) type=dipolarophile
C        3.6472800       0.4177900       0.3012400
O        2.2505800       0.3210700       0.6006500
C        1.4755200      -0.2782600      -0.3244800
O        1.9238600      -0.7272200      -1.3683800
C        0.0756100      -0.3107900       0.0835600
C       -0.5273400       0.2023200       1.3902600
C       -1.1121400       1.6154400       1.0803900
C       -2.2994400       1.2950900       0.1267300
C       -1.8216600      -0.6380300       1.4576800
C       -2.2627800      -0.2704800       0.0238000
C       -0.9878700      -0.5852700      -0.7043000
F       -0.9743200      -0.9186800      -1.9874900
H        3.8086500       1.0005600      -0.6177500
H        4.0880000      -0.5823600       0.1760500
H        4.1067000       0.9277100       1.1562400
H        0.1452200       0.1598100       2.2541700
H       -0.3568700       2.2698500       0.6230600
H       -1.4619600       2.0950300       2.0064700
H       -3.2618900       1.6041300       0.5592300
H       -2.2040200       1.7678000      -0.8608200
H       -2.5287900      -0.2855300       2.2231000
H       -1.6317700      -1.7133200       1.5870200
H       -3.1669600      -0.7332100      -0.3888500
