25
dipolar_001221 reactant_2 (FRAG2 relaxed, reordered to d) type=dipole
C        1.2526700       0.3748100      -0.1865700
C       -0.9029800      -1.6192700       0.4813500
C       -0.1772700       0.5772800      -0.3082900
C       -2.4930700       0.1619000       0.0040400
C       -3.5048600      -0.7448600       0.3279600
C       -2.8335300       1.5638800      -0.3848400
C        1.9061500      -0.4453100       0.7657800
N       -1.1749800      -0.2357300       0.0482800
C        2.0686900       1.1349800      -1.0631500
C        3.2985100      -0.5253400       0.8026900
C        4.0841400       0.2093600      -0.0910800
C        3.4569500       1.0483800      -1.0207000
N       -4.4012700      -1.4573400       0.5997100
H        1.3340200      -0.9970000       1.5090600
H       -0.4860900       1.5126100      -0.7700500
H       -2.5447100       1.7908900      -1.4288200
H       -1.7380100      -2.2561600       0.1728100
H        0.0113900      -1.9799000       0.0026400
H       -0.8015900      -1.6642800       1.5732500
H       -2.3116600       2.2981000       0.2580000
H        1.5879400       1.7932300      -1.7910300
H        4.0560800       1.6395800      -1.7175600
H        5.1736100       0.1397200      -0.0554600
H        3.7750900      -1.1629700       1.5513700
H       -3.9147700       1.7295900      -0.2915200
