17
dipolar_001326 reactant_1 @ TS geom
C        2.1561600      -0.0134100      -0.7788900
C        2.4556300       0.2427100      -2.2302900
C        2.3690500       0.9768800       0.2369600
C        2.7001800       2.3782700      -0.2168600
O        2.2322500       0.7222500       1.4479400
N        1.7132100      -1.2529600      -0.4688500
C        1.3859500      -1.9706400       0.6156300
C        1.4730500      -1.6827400       1.9839800
N        1.4846600      -1.7109000       3.1670000
H        2.0553700      -0.5432200      -2.8765200
H        2.0612600       1.2062300      -2.5519800
H        3.5562200       0.2778000      -2.3653900
H        2.7973000       3.0321900       0.6580000
H        3.6065600       2.3842300      -0.8098600
H        1.8748500       2.7671700      -0.8609900
H        1.4978300      -1.8154100      -1.3293900
H        0.7989300      -2.8923300       0.3376900
