17
dipolar_001326 reactant_1 (FRAG1 relaxed, reordered to d) type=dipole
C       -0.8078700       0.3564200       0.1884100
C        1.5631100       0.6486400       0.5792500
C       -1.2034300       1.5408600       0.9933000
C        2.8436400       0.1393100       0.3206100
O       -1.2158100      -1.5140600      -1.1606800
N        0.4836400       0.0442600       0.0692100
C       -3.1756300      -0.3156500      -0.4740800
C       -1.6914500      -0.5582700      -0.5259900
N        3.9219800      -0.2691600       0.1170400
H        0.6222700      -0.7973900      -0.5124400
H        1.4420200       1.5379800       1.1961300
H       -0.8519000       1.4422200       2.0366300
H       -0.7433500       2.4616400       0.5903900
H       -2.2901200       1.6781200       1.0089700
H       -3.4211400       0.6802200      -0.8768500
H       -3.6916700      -1.0861600      -1.0608600
H       -3.5370800      -0.3417400       0.5665400
