45
dipolar_001326 TS complex (tags stripped)
C       -0.4968400       2.7002200      -3.0587900
O       -0.5197300       2.1709300      -1.7209500
C       -0.6870800       0.8661400      -1.6074600
O       -0.7845800       0.1219700      -2.5691800
C       -0.8457600       0.3483400      -0.2088000
C       -0.6849700       1.1561000       1.0510600
O       -0.8057100       0.6382100       2.1462200
O       -0.3941100       2.4295400       0.8771600
C       -0.1464600       3.2026400       2.0680000
C        2.1561600      -0.0134100      -0.7788900
C        2.4556300       0.2427100      -2.2302900
C        2.3690500       0.9768800       0.2369600
C        2.7001800       2.3782700      -0.2168600
O        2.2322500       0.7222500       1.4479400
N        1.7132100      -1.2529600      -0.4688500
C        1.3859500      -1.9706400       0.6156300
C        1.4730500      -1.6827400       1.9839800
N        1.4846600      -1.7109000       3.1670000
C       -1.2503500      -0.9269700      -0.0809800
C       -1.8048500      -1.5159400       1.2241000
C       -3.1538400      -0.9348300       1.5811500
O       -1.3495200      -2.4938900       1.7770100
C       -1.3665400      -1.8961000      -1.2526200
C       -2.7644600      -1.9581200      -1.7895200
O       -0.4751400      -2.6419400      -1.6082700
H       -0.3400000       3.7698800      -2.9573900
H       -1.4652200       2.4966700      -3.5567700
H        0.3075800       2.2323200      -3.6366900
H       -1.0560700       3.2339300       2.7008200
H        0.6768700       2.7628200       2.6392700
H        0.1073200       4.2152500       1.7355200
H        2.0553700      -0.5432200      -2.8765200
H        2.0612600       1.2062300      -2.5519800
H        3.5562200       0.2778000      -2.3653900
H        2.7973000       3.0321900       0.6580000
H        3.6065600       2.3842300      -0.8098600
H        1.8748500       2.7671700      -0.8609900
H        1.4978300      -1.8154100      -1.3293900
H        0.7989300      -2.8923300       0.3376900
H       -3.2481200       0.0968600       1.1601300
H       -3.8800500      -1.5640000       1.0425000
H       -3.3037500      -0.9700700       2.6182600
H       -3.2950200      -2.6213000      -1.0903100
H       -3.2004300      -0.9400000      -1.6705300
H       -2.7444600      -2.3109900      -2.7627300
