17
dipolar_000049 reactant_2 @ TS geom
C       -1.6078700      -1.2109800       0.1375400
C       -2.5416700      -0.4464500      -0.8188500
C       -3.5668500       0.3956100       0.0075300
C       -2.6689600       1.4702900       0.6889200
C       -1.2475800       1.1512800       0.1310800
C       -1.5988400       0.6847300      -1.2949000
C       -0.7410000      -0.1931000       0.6832500
F       -0.5053000      -0.2104100       2.0585200
H       -2.0495200      -2.0354700       0.7856500
H       -3.0113100      -1.0587700      -1.5920900
H       -4.3186000       0.8913300      -0.7018500
H       -4.1634200      -0.1768100       0.7105700
H       -2.9745500       2.5219700       0.3537000
H       -2.7477000       1.4737400       1.7702500
H       -0.5228300       1.9511400       0.2578300
H       -0.7155500       0.3071200      -1.8221000
H       -2.0937000       1.4523600      -1.8774700
