13
dipolar_000049 reactant_1 @ TS geom
C        4.4738400       0.9709600       0.4474000
N        3.3267500       0.0675900       0.4380100
C        2.2158000       0.3386400      -0.2591200
O        2.0855200       1.3342100      -0.9820400
C        1.0028900      -0.5706000      -0.1286000
N        0.9652000      -1.6765700      -0.7618800
C       -0.2352300      -2.3706900      -0.9673400
H        4.1358900       2.0250100       0.5139000
H        5.1107700       0.8890100      -0.4539400
H        5.1109100       0.7670700       1.3289400
H        3.4182900      -0.8032200       0.9400400
H       -0.0414000      -3.5194400      -0.7660400
H       -0.6156200      -2.2426200      -2.0161800
