30
dipolar_000049 TS complex (tags stripped)
C        4.4738400       0.9709600       0.4474000
N        3.3267500       0.0675900       0.4380100
C        2.2158000       0.3386400      -0.2591200
O        2.0855200       1.3342100      -0.9820400
C        1.0028900      -0.5706000      -0.1286000
N        0.9652000      -1.6765700      -0.7618800
C       -0.2352300      -2.3706900      -0.9673400
C       -1.6078700      -1.2109800       0.1375400
C       -2.5416700      -0.4464500      -0.8188500
C       -3.5668500       0.3956100       0.0075300
C       -2.6689600       1.4702900       0.6889200
C       -1.2475800       1.1512800       0.1310800
C       -1.5988400       0.6847300      -1.2949000
C       -0.7410000      -0.1931000       0.6832500
F       -0.5053000      -0.2104100       2.0585200
H        4.1358900       2.0250100       0.5139000
H        5.1107700       0.8890100      -0.4539400
H        5.1109100       0.7670700       1.3289400
H        3.4182900      -0.8032200       0.9400400
H       -0.0414000      -3.5194400      -0.7660400
H       -0.6156200      -2.2426200      -2.0161800
H       -2.0495200      -2.0354700       0.7856500
H       -3.0113100      -1.0587700      -1.5920900
H       -4.3186000       0.8913300      -0.7018500
H       -4.1634200      -0.1768100       0.7105700
H       -2.9745500       2.5219700       0.3537000
H       -2.7477000       1.4737400       1.7702500
H       -0.5228300       1.9511400       0.2578300
H       -0.7155500       0.3071200      -1.8221000
H       -2.0937000       1.4523600      -1.8774700
