31
dipolar_001701 reactant_1 (FRAG1 relaxed, reordered to d) type=dipolarophile
C       -0.4402800      -0.2088700       1.3769000
C        0.3006800      -0.1852400       0.4230500
C        0.7812700       0.1012100      -0.9230500
C       -0.2953600      -3.2413900      -2.1869500
O       -0.0337300      -2.1043100      -1.3426700
O        1.0003700      -1.0527900      -3.0369000
C        0.6101900      -1.0880700      -1.8924300
C        2.2696800       0.4992200      -0.8992300
F        3.0427200      -0.5598300      -0.6035700
F        2.6848200       0.9916300      -2.0704900
F        2.4971200       1.4359200       0.0337700
C       -0.0939800       1.2950300      -1.4380300
C       -1.6149900       1.1168200      -1.2647100
C       -2.2754500       1.6036000       0.0551700
C       -2.7349800       0.5558800       1.0841100
C       -1.3494200       1.2800600       3.0421000
C       -1.6400300       0.1392300       2.1465100
N       -1.1342600       2.1993500       3.7133700
C       -2.1455500      -0.9846000       2.9604300
N       -2.5652400      -1.8750200       3.5710200
H       -0.8388500      -3.9575500      -1.5611600
H        0.6509200      -3.6759300      -2.5377600
H       -0.9077600      -2.9378800      -3.0473600
H       -1.9000400       0.0704300      -1.4641300
H        0.1485400       1.4227200      -2.5022900
H       -2.0688600       1.7016100      -2.0781200
H       -3.0439500      -0.3736300       0.5840600
H       -3.1927300       2.1418500      -0.2257500
H        0.2396000       2.2014000      -0.9109400
H       -3.5945000       0.9313700       1.6579600
H       -1.6367200       2.3576400       0.5455200
