43
dipolar_001701 TS complex (tags stripped)
C        2.7826600       2.6284800       2.3482300
O        2.1472200       2.3944200       1.0828500
C        2.6806700       1.4509400       0.3059100
O        3.6601800       0.7795100       0.6012500
C        1.9324800       1.3032500      -0.9385000
N        2.2210400       0.2989800      -1.7056200
O        1.6775500      -0.0389800      -2.7764600
C       -0.3492300      -0.7880000      -1.4565900
C       -0.2950300      -0.2460100      -0.4075800
C       -0.7691000       0.1101300       0.9234400
C       -0.7833700       1.6177300       1.1978800
O       -0.9427200       2.4435200       0.3263400
O       -0.6910000       1.8936000       2.4891100
C       -0.7845000       3.2764400       2.8690500
C        0.0149600      -0.7081200       1.9662700
F        1.2545100      -0.2257100       2.1729600
F       -0.6086200      -0.7465000       3.1511100
F        0.1582500      -1.9788300       1.5544000
C       -2.2536200      -0.4023900       0.8879500
C       -3.0839700       0.0753900      -0.3240200
C       -3.3442700      -0.9361400      -1.4629800
C       -2.4183500      -1.0038200      -2.6836800
C       -0.9970200      -1.6324000      -2.4496500
C       -1.1094400      -2.9452200      -1.7795000
N       -1.2122200      -3.9422300      -1.1947300
C       -0.3387400      -1.8254900      -3.7544400
N        0.0933200      -2.0114500      -4.8135200
H        2.2417300       3.4601400       2.8119000
H        2.7333200       1.7359900       2.9777800
H        3.8366600       2.9091600       2.1803200
H        1.0361700       1.9159900      -1.1798700
H        3.0256200      -0.2857700      -1.4372100
H       -1.7974400       3.6468600       2.6614600
H       -0.0479800       3.8679600       2.3149400
H       -0.5774500       3.2977200       3.9425000
H       -2.6932600      -0.1150900       1.8072300
H       -2.1734900      -1.5103900       0.8515200
H       -4.0631000       0.3390800       0.0839700
H       -2.6746500       1.0145400      -0.7415200
H       -4.3189800      -0.6742100      -1.9069300
H       -3.4680300      -1.9410800      -1.0443700
H       -2.2213800       0.0100100      -3.0888100
H       -2.8703300      -1.6035400      -3.4548800
