16
dipolar_000344 reactant_2 @ TS geom
C        0.8678200       2.3055600      -0.4284300
C        0.9941800       2.2111800       0.9828800
N        1.0637400       2.3468700       2.1443300
O        0.8625500       1.3090400      -1.2702600
C        1.1783000       0.0234600      -1.2742200
C        0.8958400      -0.6218900      -2.4931400
N        0.6740400      -1.2012200      -3.4852400
C        1.8917400      -0.6187400      -0.1565600
O        2.4801700       0.0788800       0.6833500
N        1.9205500      -1.9663700      -0.1569100
C        2.5928200      -2.6980100       0.9005200
H        0.3824300       3.1963900      -0.8338300
H        1.2685800      -2.4816600      -0.7498200
H        2.5563800      -3.7722200       0.6687000
H        3.6481900      -2.3895000       0.9666500
H        2.1243600      -2.5304400       1.8825700
