16
dipolar_000344 reactant_2 (FRAG2 relaxed, reordered to d) type=dipole
C       -1.0996400       0.6836400      -0.1092300
C       -3.3780500       1.6118500      -0.1327000
N       -2.4173900       0.5659400       0.1553600
O       -0.5791600       1.6877900      -0.6203600
C       -0.2632200      -0.4761200       0.2472300
C        1.8531300       0.3846300      -0.4730000
N        4.3409300      -0.2694900      -0.6083200
C       -0.7535100      -1.6602700       0.8377100
O        1.0419100      -0.4869600       0.0356700
N       -1.2056500      -2.6197700       1.3258100
C        3.2081900       0.0020100      -0.5353900
H       -3.8885500       1.9381700       0.7867600
H        1.4833700       1.3466500      -0.8248600
H       -2.7638000      -0.2915000       0.5763000
H       -4.1391100       1.2594600      -0.8464300
H       -2.8527000       2.4684500      -0.5695900
