16
dipolar_000344 reactant_1 @ TS geom
C       -0.8531000      -3.4334800       1.6938600
N       -0.9779200      -2.0198600       1.4249100
C       -1.1767100      -1.5483700       0.1835500
O       -1.2373800      -2.2471000      -0.8329700
C       -1.4069200      -0.1022500       0.1563300
C       -1.7407800       1.0510800       0.1883700
C       -2.3829000       2.3534100       0.3506400
C       -3.8735100       2.1925100       0.2423500
O       -1.8085500       3.4031900       0.5913800
H       -0.1688000      -3.8802100       0.9842200
H       -0.4855700      -3.5357200       2.7112500
H       -1.8383800      -3.9199500       1.6062400
H       -0.9177500      -1.3223300       2.1753200
H       -4.1370800       1.3356900       0.9395400
H       -4.3531800       3.0654400       0.4599300
H       -4.0656600       1.7796700      -0.7748500
