29
dipolar_002805 reactant_1 @ TS geom
C       -1.1814000       0.1510700      -0.5798400
C       -2.4432800      -0.4487200      -0.0972900
C       -3.6813800       0.1379100      -0.4622600
C       -4.8834400      -0.3152000       0.0775600
C       -4.8914200      -1.3691400       0.9992300
C       -3.6820700      -1.9579000       1.3752600
C       -2.4741300      -1.5016000       0.8445900
C       -1.2789800       1.1215900      -1.8166700
C       -1.5464800       0.2739300      -3.0627200
C       -0.3854700      -0.3495800      -3.3069700
C        0.5663200       0.1325300      -2.2076500
O        0.1013500       1.4681100      -1.9917500
C        0.1613300      -0.5378000      -0.8129500
C        0.2593200      -2.0562700      -0.9719100
O       -0.5771100      -2.9086200      -0.7784500
O        1.4701500      -2.3446800      -1.4784400
C        1.8422300      -3.7249200      -1.5520800
H       -3.7174700       0.9670300      -1.1676000
H       -5.8300200       0.1655400      -0.2070200
H       -5.8376500      -1.7195600       1.4340200
H       -3.6758100      -2.7689400       2.1106400
H       -1.5482700      -1.9646400       1.1554800
H       -1.9089900       1.9954700      -1.6722900
H       -2.5016900       0.2403300      -3.6372600
H       -0.1382700      -1.0314100      -4.1484500
H        1.6224400       0.0807100      -2.4234100
H        1.8059500      -4.1812100      -0.5477200
H        2.8835500      -3.7312900      -1.9181000
H        1.1996100      -4.2874100      -2.2339200
