32
dipolar_002805 reactant_2 @ TS geom
C        1.3088500      -1.0557100       4.0963700
N        1.5269200      -0.3152800       2.8574600
C        1.2586800      -0.8730300       1.6654100
O        1.0088800      -2.0812200       1.5443600
C        1.3344800       0.0627700       0.4190300
C        2.7702700       0.1141500      -0.0987600
C        3.2462000       1.2144300      -0.8368500
C        4.5105400       1.1855700      -1.4340000
C        5.3276500       0.0605600      -1.3016400
C        4.8799100      -1.0254800      -0.5445400
C        3.6188600      -0.9961100       0.0531200
N        0.8702900       1.3817500       0.7982300
C       -0.5390900       1.4181900       0.9322300
C       -1.0926000       0.8364500       2.1334000
N       -1.6119400       0.3268300       3.0402100
C       -1.1113200       2.7637100       0.6019600
O       -0.4968400       3.6148600      -0.0082900
O       -2.3820800       2.8637600       0.9755200
C       -3.1085100       4.0123700       0.5098100
H        0.2197400      -1.2392100       4.2864200
H        1.7931800      -2.0565500       4.0645500
H        1.7075700      -0.5190100       4.9757900
H        1.6726700       0.6840700       2.9785400
H        2.6489500       2.1194700      -0.9852000
H        4.8526300       2.0393500      -2.0357400
H        6.3055900       0.0212900      -1.7947200
H        5.5035000      -1.9150200      -0.4340700
H        3.2876900      -1.8479000       0.6373400
H        1.1610300       2.1242600       0.1412200
H       -3.1007300       4.0221400      -0.5921800
H       -2.6625600       4.9382200       0.8907300
H       -4.1250200       3.8853800       0.8826300
