61
dipolar_002805 TS complex (tags stripped)
C        1.3088500      -1.0557100       4.0963700
N        1.5269200      -0.3152800       2.8574600
C        1.2586800      -0.8730300       1.6654100
O        1.0088800      -2.0812200       1.5443600
C        1.3344800       0.0627700       0.4190300
C        2.7702700       0.1141500      -0.0987600
C        3.2462000       1.2144300      -0.8368500
C        4.5105400       1.1855700      -1.4340000
C        5.3276500       0.0605600      -1.3016400
C        4.8799100      -1.0254800      -0.5445400
C        3.6188600      -0.9961100       0.0531200
N        0.8702900       1.3817500       0.7982300
C       -0.5390900       1.4181900       0.9322300
C       -1.0926000       0.8364500       2.1334000
N       -1.6119400       0.3268300       3.0402100
C       -1.1113200       2.7637100       0.6019600
O       -0.4968400       3.6148600      -0.0082900
O       -2.3820800       2.8637600       0.9755200
C       -3.1085100       4.0123700       0.5098100
C       -1.1814000       0.1510700      -0.5798400
C       -2.4432800      -0.4487200      -0.0972900
C       -3.6813800       0.1379100      -0.4622600
C       -4.8834400      -0.3152000       0.0775600
C       -4.8914200      -1.3691400       0.9992300
C       -3.6820700      -1.9579000       1.3752600
C       -2.4741300      -1.5016000       0.8445900
C       -1.2789800       1.1215900      -1.8166700
C       -1.5464800       0.2739300      -3.0627200
C       -0.3854700      -0.3495800      -3.3069700
C        0.5663200       0.1325300      -2.2076500
O        0.1013500       1.4681100      -1.9917500
C        0.1613300      -0.5378000      -0.8129500
C        0.2593200      -2.0562700      -0.9719100
O       -0.5771100      -2.9086200      -0.7784500
O        1.4701500      -2.3446800      -1.4784400
C        1.8422300      -3.7249200      -1.5520800
H        0.2197400      -1.2392100       4.2864200
H        1.7931800      -2.0565500       4.0645500
H        1.7075700      -0.5190100       4.9757900
H        1.6726700       0.6840700       2.9785400
H        2.6489500       2.1194700      -0.9852000
H        4.8526300       2.0393500      -2.0357400
H        6.3055900       0.0212900      -1.7947200
H        5.5035000      -1.9150200      -0.4340700
H        3.2876900      -1.8479000       0.6373400
H        1.1610300       2.1242600       0.1412200
H       -3.1007300       4.0221400      -0.5921800
H       -2.6625600       4.9382200       0.8907300
H       -4.1250200       3.8853800       0.8826300
H       -3.7174700       0.9670300      -1.1676000
H       -5.8300200       0.1655400      -0.2070200
H       -5.8376500      -1.7195600       1.4340200
H       -3.6758100      -2.7689400       2.1106400
H       -1.5482700      -1.9646400       1.1554800
H       -1.9089900       1.9954700      -1.6722900
H       -2.5016900       0.2403300      -3.6372600
H       -0.1382700      -1.0314100      -4.1484500
H        1.6224400       0.0807100      -2.4234100
H        1.8059500      -4.1812100      -0.5477200
H        2.8835500      -3.7312900      -1.9181000
H        1.1996100      -4.2874100      -2.2339200
