17
dipolar_000658 reactant_2 (FRAG2 relaxed, reordered to d) type=dipolarophile
C       -0.0046700      -0.0001300      -0.0000300
C       -0.6709100      -0.1311200       1.2368700
C        1.4212800       0.1313700      -0.0495600
C        2.6326600       0.2426800      -0.0907500
C       -0.7672000      -0.0011000      -1.1872400
C       -2.1552100      -0.1297000      -1.1343400
C       -2.8061500      -0.2591600       0.0973300
C       -2.0592700      -0.2592400       1.2804400
C        4.0825000       0.3762300      -0.1412500
H       -0.0882600      -0.1312100       2.1601800
H        4.5344600       0.1704800       0.8425400
H        4.5207600      -0.3266400      -0.8687500
H       -0.2594100       0.1001400      -2.1484400
H       -2.7332900      -0.1289300      -2.0614300
H        4.3773800       1.3955400      -0.4411500
H       -2.5621300      -0.3601400       2.2451400
H       -3.8932700      -0.3599200       0.1351000
