26
dipolar_000658 reactant_1 @ TS geom
C       -0.9487800       4.2154600      -1.0543800
N       -0.9200100       2.7771600      -1.1867800
C       -1.6743100       1.9751200      -0.3810400
O       -2.4077400       2.4939000       0.4904200
C       -1.5844700       0.5357000      -0.6003400
C       -2.3919200      -0.5081600       0.0226800
C       -2.1366100      -1.8736900      -0.2523100
C       -2.9372300      -2.8808300       0.2840600
C       -4.0135100      -2.5685200       1.1220400
C       -4.2645000      -1.2248800       1.4200600
C       -3.4717600      -0.2092000       0.8872000
N       -0.5166700       0.1319900      -1.2940100
C        0.5260100      -0.2138100      -1.7703100
C        1.5804800      -0.5975700      -2.6605000
H       -0.5645100       4.5421600      -0.0804100
H       -0.3246700       4.6469100      -1.8467300
H       -1.9738900       4.6093800      -1.1638100
H       -0.3418400       2.3581700      -1.9025100
H       -1.3077300      -2.1471800      -0.9090900
H       -2.7249500      -3.9217500       0.0301100
H       -4.6458100      -3.3536800       1.5310200
H       -5.0990700      -0.9544000       2.0707900
H       -3.6667400       0.8325200       1.1345900
H        1.1386700      -0.6382200      -3.6089700
H        2.0004400      -1.5557000      -2.3134500
H        2.3964500       0.1462400      -2.5772600
