17
dipolar_000658 reactant_2 @ TS geom
C        1.4595300       0.0393800       0.8688900
C        2.7271000      -0.3946200       0.3531400
C        3.0766100      -1.7606100       0.3967000
C        4.3888400      -2.1551300       0.1457500
C        5.3683600      -1.2033500      -0.1611200
C        5.0224400       0.1512300      -0.2267600
C        3.7135600       0.5573500       0.0226000
C        0.5009200       0.3986800       1.4767000
C       -0.4988100       0.7946800       2.4744800
H        2.3069300      -2.4968800       0.6470400
H        4.6470500      -3.2111100       0.2036800
H        6.3919500      -1.5145400      -0.3527600
H        5.7747300       0.9016700      -0.4597600
H        3.4348700       1.6143900      -0.0140000
H        0.1421900       0.8740800       3.3829900
H       -1.2326000       0.0242600       2.6302100
H       -0.9656200       1.7368700       2.2757200
