14
dipolar_001779 reactant_1 (FRAG1 relaxed, reordered to d) type=dipolarophile
C       -0.1125000       0.4722800      -0.0955100
C        0.1503100       1.7689500      -0.3532500
O        0.7839600      -0.5148400       0.0906200
C        2.1660000      -0.1884600       0.0189700
O       -1.3896400       0.0334500       0.0012300
C       -1.6385100      -1.3412400       0.2915400
H        2.4257100       0.2047900      -0.9773200
H       -0.6859500       2.4565400      -0.4801400
H        2.7147200      -1.1206700       0.2019400
H        2.4341200       0.5556900       0.7863600
H        1.1672800       2.1445000      -0.4396300
H       -1.2171200      -1.6318600       1.2661800
H       -2.7307200      -1.4456100       0.3215600
H       -1.2301900      -2.0006100      -0.4896700
