21
dipolar_002808 reactant_2 (FRAG2 relaxed, reordered to d) type=dipole
N        0.3929000       0.7407200       0.1042700
C        2.4488600      -0.3305400      -0.0597800
C        3.0869300      -1.5499600      -0.3634100
C        3.1965700       0.9104400       0.2894400
C       -0.9881200       0.5617400       0.1108600
C       -1.6595800      -0.6791000       0.2034600
C       -1.7617100       1.7412400       0.0459700
N        1.1127800      -0.3135200      -0.1067900
C       -3.1529000       1.6836500       0.0445800
C       -3.0541300      -0.7247800       0.1974900
C       -3.8108300       0.4493200       0.1152900
N        3.6469600      -2.5484000      -0.6036900
H        0.6594700      -1.2089800      -0.3434200
H       -1.1107200      -1.6183200       0.3057100
H        2.9927700       1.7057800      -0.4482800
H       -1.2396700       2.6984000      -0.0129700
H       -3.7301600       2.6096700      -0.0130000
H        2.8677100       1.2925300       1.2708800
H       -3.5550400      -1.6931300       0.2721900
H       -4.9019500       0.4032500       0.1161500
H        4.2757900       0.7165300       0.3189400
