21
dipolar_002808 reactant_2 @ TS geom
N       -6.8332200     -10.9969100       8.7831800
C       -7.3581300      -9.7920200       9.2117200
C       -8.1290300      -9.7118900      10.3952200
C       -8.8125800      -8.5372700      10.7043600
C       -8.7695800      -7.4340100       9.8420900
C       -8.0373500      -7.5253000       8.6544000
C       -7.3382400      -8.6854000       8.3405600
N       -5.6912300     -11.0441500       8.1543100
C       -4.5803600     -10.2793800       8.1762900
C       -4.4058100      -9.0551400       9.0195200
C       -3.5149400     -10.7433700       7.3741100
N       -2.5977000     -11.0819500       6.7253300
H       -8.2170300     -10.5586700      11.0902400
H       -9.4038500      -8.4781100      11.6283400
H       -9.3078200      -6.5199300      10.0701700
H       -8.0061200      -6.7219900       7.9427300
H       -6.8054900      -8.8105300       7.4060100
H       -5.6114400     -11.8871400       7.5741200
H       -4.9236700      -9.0570000       9.9859000
H       -4.7871000      -8.2563000       8.3964400
H       -3.3281700      -8.8682300       9.1959800
