64
dipolar_002808 TS complex (tags stripped)
C       -7.0295600     -10.5096000      13.9780000
O       -6.5398000     -11.1714800      12.8022000
C       -7.0990700     -12.3374100      12.4863000
O       -7.9492900     -12.8811600      13.1611100
C       -6.5245600     -12.9621600      11.2170800
C       -7.6432900     -13.2617400      10.1881800
C       -7.2418000     -14.0519900       8.9717700
O       -8.7983200     -12.9441500      10.3975600
C       -5.8561100     -14.3164300      11.6305500
C       -4.7662100     -14.2288500      12.7129500
C       -3.2942700     -14.0446100      12.2922600
C       -2.7239500     -12.6306500      12.0942200
C       -2.8619700     -12.0183400      10.6609800
C       -2.3234600     -13.0238400       9.6340900
O       -2.9856900     -13.5762100       8.7842700
O       -1.0365500     -13.2711100       9.8511400
C       -0.4036600     -14.2216000       8.9849200
C       -2.0822900     -10.7033700      10.5977400
O       -1.2679600     -10.4130600       9.7474500
O       -2.4219400      -9.9043500      11.6053200
C       -1.7294000      -8.6516300      11.7133800
C       -4.2981800     -11.8631800      10.4908600
C       -5.4185000     -12.1841800      10.6908700
N       -6.8332200     -10.9969100       8.7831800
C       -7.3581300      -9.7920200       9.2117200
C       -8.1290300      -9.7118900      10.3952200
C       -8.8125800      -8.5372700      10.7043600
C       -8.7695800      -7.4340100       9.8420900
C       -8.0373500      -7.5253000       8.6544000
C       -7.3382400      -8.6854000       8.3405600
N       -5.6912300     -11.0441500       8.1543100
C       -4.5803600     -10.2793800       8.1762900
C       -4.4058100      -9.0551400       9.0195200
C       -3.5149400     -10.7433700       7.3741100
N       -2.5977000     -11.0819500       6.7253300
H       -8.0975800     -10.2815200      13.8628500
H       -6.4505900      -9.5825000      14.0726300
H       -6.8796000     -11.1447400      14.8632900
H       -7.3744400     -15.1240500       9.2045100
H       -6.1920700     -13.9003500       8.6889900
H       -7.9103600     -13.7993900       8.1390200
H       -5.4114300     -14.7501900      10.7095600
H       -6.6587700     -14.9409400      11.9544400
H       -4.8148300     -15.2023800      13.2253600
H       -5.0293100     -13.4824400      13.4768800
H       -3.0783900     -14.6814100      11.4222800
H       -2.6915000     -14.4577800      13.1141800
H       -3.2568900     -11.9221500      12.7694500
H       -1.6887000     -12.6093300      12.3211700
H       -0.4643600     -13.8753700       7.9466000
H        0.6360500     -14.2700000       9.3192300
H       -0.8884300     -15.2022200       9.0823400
H       -1.9316600      -8.0242000      10.8387000
H       -0.6466300      -8.8316100      11.8005400
H       -2.1117000      -8.1784300      12.6233900
H       -8.2170300     -10.5586700      11.0902400
H       -9.4038500      -8.4781100      11.6283400
H       -9.3078200      -6.5199300      10.0701700
H       -8.0061200      -6.7219900       7.9427300
H       -6.8054900      -8.8105300       7.4060100
H       -5.6114400     -11.8871400       7.5741200
H       -4.9236700      -9.0570000       9.9859000
H       -4.7871000      -8.2563000       8.3964400
H       -3.3281700      -8.8682300       9.1959800
