22
dipolar_000568 reactant_1 (FRAG1 relaxed, reordered to d) type=dipolarophile
C       -1.5278200       0.8515500       1.1426100
C        0.4226100      -0.1384800       0.2716600
O        2.4515600      -1.3464100       0.1978600
C       -0.4324200       1.1113600       0.0867800
C       -0.4200600      -1.1465700       0.5995000
C       -1.2413000       0.8840200      -1.2301400
C       -2.1917200      -0.2878900      -0.8540900
C        2.5631800       0.8931500      -0.6321600
C        1.8564400      -0.2937000      -0.0322200
C       -1.8186300      -0.5816300       0.6420200
H       -1.1447200       0.8760200       2.1737400
H       -2.5656600      -1.1747600       1.1838600
H       -0.1556300      -2.2020000       0.6897200
H       -2.0574800      -1.1751500      -1.4890200
H       -1.8084400       1.7910700      -1.4871100
H       -3.2479500       0.0136600      -0.9158100
H       -0.5808700       0.6485600      -2.0769600
H        2.0400900       1.2299100      -1.5420600
H        3.6041800       0.6370500      -0.8687000
H        0.0972400       2.0697800       0.1369800
H        2.5399000       1.7379800       0.0760600
H       -2.3925400       1.5266600       1.0505400
