43
dipolar_000568 TS complex (tags stripped)
C       -1.4735000      -2.8917100       1.6807800
C       -1.6658000      -1.4097900       1.8343900
O       -1.5567800      -0.8603900       2.9247200
C       -1.9383600      -0.6211000       0.6200100
C       -2.1338600      -1.1298000      -0.8083300
C       -3.6919800      -1.1794200      -0.9690800
C       -4.1098700       0.3209600      -0.9396500
C       -2.7377500       1.0481800      -0.7666900
C       -1.8128200       0.1393800      -1.6093800
C       -2.4356100       0.6113300       0.6270700
N       -0.3950300       1.9555700       1.3116200
N        0.4559100       1.6652600       0.4318800
C        0.5128600       2.6681900      -0.6584100
C        1.2919200       0.5813600       0.4310700
C        1.3221400      -0.1653400       1.6310400
N        1.4239300      -0.7781700       2.6215400
C        2.3292300       0.3015800      -0.5746500
C        2.1346700       0.4288000      -1.9625500
C        3.1702600       0.1399800      -2.8524600
C        4.4096500      -0.3014600      -2.3825800
C        4.6073900      -0.4538300      -1.0065300
C        3.5813300      -0.1546400      -0.1141800
H       -1.4677300      -3.3613600       2.6710600
H       -2.2616300      -3.3400900       1.0532000
H       -0.5095300      -3.0947700       1.1816100
H       -1.6162500      -2.0492200      -1.0860400
H       -4.1561000      -1.7518300      -0.1524200
H       -3.9617200      -1.6052800      -1.9147000
H       -4.7378300       0.5941800      -0.0557900
H       -4.5684700       0.6704600      -1.8220100
H       -2.7033000       2.1376400      -1.0006700
H       -2.1357100       0.0771400      -2.6601500
H       -0.7372000       0.3845400      -1.5909400
H       -2.7169800       1.1889300       1.5155600
H       -0.4956500       1.1116900       1.9825900
H       -0.0852500       2.3686500      -1.5410600
H        0.0531300       3.5699800      -0.2239900
H        1.5338800       2.8299500      -0.9261800
H        1.1665900       0.7428200      -2.3602800
H        2.9918100       0.2479200      -3.9205800
H        5.2088000      -0.5309000      -3.0758900
H        5.5640200      -0.7957800      -0.6161000
H        3.7453600      -0.2679700       0.9656900
