22
dipolar_001241 reactant_2 @ TS geom
C       -3.7673900      -0.7410700      -2.3918400
N       -3.1360200      -0.5564400      -1.1068100
C       -2.1025100      -1.3250700      -0.7037200
O       -1.7106900      -2.3202400      -1.3654000
C       -1.4461500      -0.9777100       0.5521000
C       -1.9818300      -0.0101700       1.4969700
O       -2.6997800       0.9509100       1.1374200
N       -1.7637300      -0.2311400       2.8199400
C       -2.2759100       0.6584400       3.8349800
N       -0.3451200      -1.7657900       0.7650800
C        0.6513000      -1.7446800       1.6177100
H       -4.0712600      -1.7931900      -2.5159500
H       -3.1137400      -0.4712600      -3.2298700
H       -4.6735500      -0.1150100      -2.4337700
H       -3.2768800       0.3106200      -0.5720500
H       -1.2572000      -1.0684800       3.0818300
H       -3.3801800       0.6402000       3.8631200
H       -1.8951900       0.3043700       4.7995000
H       -1.9454500       1.6754400       3.6533100
H       -0.2965100      -2.4833800       0.0525100
H        1.4949500      -2.3613300       1.4930600
H        0.7561500      -0.8321800       2.3068400
