22
dipolar_001241 reactant_2 (FRAG2 relaxed, reordered to d) type=dipole
C       -0.5223700       2.2827900      -1.7786900
N       -0.8712900       1.2268000      -1.0969700
C       -0.1803900       0.3313100      -0.2989400
O        1.9254000       1.3059300      -0.8233300
C       -0.9730100      -0.6486600       0.4285300
C        1.2792600       0.3938700      -0.2566400
O       -0.4817300      -1.6852400       0.9314400
N        1.9198100      -0.5864400       0.4254100
C       -3.1587300      -1.3714600       1.2525600
N       -2.3245200      -0.4236600       0.5368100
C        3.3608400      -0.6309300       0.5046400
H        0.5035000       2.6348900      -1.7389300
H       -1.2964900       2.7617900      -2.3780500
H       -1.8585100       0.9753400      -1.2038200
H        1.3342700      -1.3379800       0.7914000
H       -2.9185400      -1.4180600       2.3292400
H        3.6555400      -1.4600100       1.1610800
H       -3.0347800      -2.3812600       0.8370900
H       -4.2093700      -1.0734100       1.1403300
H       -2.6470100       0.5386000       0.5519200
H        3.7730200       0.3037900       0.9185500
H        3.8305700      -0.7872600      -0.4825200
