23
dipolar_001241 reactant_1 @ TS geom
C        1.5589100       0.3352600      -0.0480400
C        2.3285400      -0.7769500      -0.6078600
O        1.9196400      -1.6146500      -1.3992600
O        3.6150100      -0.7442900      -0.1893300
C        4.4947800      -1.7190600      -0.7510600
C        2.0574400       1.3031000       1.0179900
C        2.5956800       2.4872900       0.1455200
C        1.2944700       3.0943200      -0.4575200
C        0.1733900       2.1819800       0.1407300
C        0.7432100       1.9040200       1.5444900
C        0.4656800       0.8752800      -0.5579300
Cl      -0.1930300       0.5870900      -2.1564200
H        5.4785600      -1.5190900      -0.3133000
H        4.5466300      -1.6100900      -1.8500400
H        4.1601400      -2.7295800      -0.5047200
H        2.7618100       0.9012800       1.7669400
H        3.2696100       2.0650700      -0.6405100
H        3.1165900       3.1802500       0.7358000
H        1.2407500       3.0078800      -1.5688700
H        1.1267800       4.0854200      -0.1591900
H       -0.8643200       2.5469800       0.0911000
H        0.1517700       1.2367500       2.1892400
H        0.9214000       2.8470000       2.1026200
