23
dipolar_001241 reactant_1 (FRAG1 relaxed, reordered to d) type=dipolarophile
C        0.1409400       0.2596000      -0.2936300
C        1.5746300       0.2244200       0.0047600
O        2.1058000       0.6214200       1.0276900
O        2.2723000      -0.3132600      -1.0154000
C        3.6904700      -0.4066800      -0.8421100
C       -0.5061200      -0.1193800      -1.6243600
C       -1.0427200      -1.5742800      -1.4447700
C       -2.1943300      -1.3916000      -0.4157900
C       -2.1855300       0.1514600      -0.1464900
C       -1.8176300       0.6881500      -1.5451900
C       -0.8851300       0.4165600       0.5771900
Cl      -0.8290900       0.6365400       2.2852500
H        4.0789100      -0.8657800      -1.7587900
H        3.9349300      -1.0337700       0.0280100
H        4.1309400       0.5916300      -0.7025600
H        0.1299800       0.0320800      -2.5032000
H       -0.2524800      -2.2525200      -1.0938900
H       -2.0454100      -1.9627500       0.5113700
H       -3.0828800       0.5418200       0.3467500
H       -3.1669800      -1.6802500      -0.8397400
H       -1.6567500       1.7758400      -1.5592900
H       -2.5490200       0.4054600      -2.3169200
H       -1.4196400      -1.9587700      -2.4039500
