45
dipolar_001241 TS complex (tags stripped)
C       -3.7673900      -0.7410700      -2.3918400
N       -3.1360200      -0.5564400      -1.1068100
C       -2.1025100      -1.3250700      -0.7037200
O       -1.7106900      -2.3202400      -1.3654000
C       -1.4461500      -0.9777100       0.5521000
C       -1.9818300      -0.0101700       1.4969700
O       -2.6997800       0.9509100       1.1374200
N       -1.7637300      -0.2311400       2.8199400
C       -2.2759100       0.6584400       3.8349800
N       -0.3451200      -1.7657900       0.7650800
C        0.6513000      -1.7446800       1.6177100
C        1.5589100       0.3352600      -0.0480400
C        2.3285400      -0.7769500      -0.6078600
O        1.9196400      -1.6146500      -1.3992600
O        3.6150100      -0.7442900      -0.1893300
C        4.4947800      -1.7190600      -0.7510600
C        2.0574400       1.3031000       1.0179900
C        2.5956800       2.4872900       0.1455200
C        1.2944700       3.0943200      -0.4575200
C        0.1733900       2.1819800       0.1407300
C        0.7432100       1.9040200       1.5444900
C        0.4656800       0.8752800      -0.5579300
Cl      -0.1930300       0.5870900      -2.1564200
H       -4.0712600      -1.7931900      -2.5159500
H       -3.1137400      -0.4712600      -3.2298700
H       -4.6735500      -0.1150100      -2.4337700
H       -3.2768800       0.3106200      -0.5720500
H       -1.2572000      -1.0684800       3.0818300
H       -3.3801800       0.6402000       3.8631200
H       -1.8951900       0.3043700       4.7995000
H       -1.9454500       1.6754400       3.6533100
H       -0.2965100      -2.4833800       0.0525100
H        1.4949500      -2.3613300       1.4930600
H        0.7561500      -0.8321800       2.3068400
H        5.4785600      -1.5190900      -0.3133000
H        4.5466300      -1.6100900      -1.8500400
H        4.1601400      -2.7295800      -0.5047200
H        2.7618100       0.9012800       1.7669400
H        3.2696100       2.0650700      -0.6405100
H        3.1165900       3.1802500       0.7358000
H        1.2407500       3.0078800      -1.5688700
H        1.1267800       4.0854200      -0.1591900
H       -0.8643200       2.5469800       0.0911000
H        0.1517700       1.2367500       2.1892400
H        0.9214000       2.8470000       2.1026200
