22
dipolar_002016 reactant_2 (FRAG2 relaxed, reordered to d) type=dipolarophile
C        0.3449400      -0.3251700       0.5373500
C        1.7593200      -0.1372800       0.1772400
F       -0.3732900       2.5666300      -0.5100800
F       -0.2216600       1.0992000      -2.0945500
F       -2.1559500       1.6012200      -1.2692500
C       -0.2253500      -1.4322900       1.4625100
C        3.9055300      -1.1139400       0.3005500
C       -0.9276900      -2.4602500       0.5474300
C       -2.0048500      -1.8242300       0.0805100
O        2.5026500      -1.1660100       0.5993700
C       -0.7407700       0.3106000       0.0707800
C       -1.9425200      -0.4188900       0.7232800
O       -1.3613000      -0.7326900       1.9962600
O        2.2041000       0.8210200      -0.4254700
C       -0.8635400       1.3952700      -0.9511200
H        4.3627800      -0.2295700       0.7673100
H        4.3371200      -2.0308800       0.7173000
H       -0.5476200      -3.4557600       0.3225900
H        0.4435500      -1.8087700       2.2413300
H       -2.7580900      -2.1473600      -0.6364700
H       -2.8738600       0.1484200       0.8098300
H        4.0642800      -1.0765500      -0.7868700
