27
dipolar_002016 reactant_1 @ TS geom
C       -1.1934700       2.5455700      -3.4465900
N       -1.5830000       1.6370400      -2.3837800
C       -1.3347200       1.9227300      -1.0942200
O       -0.9888100       3.0571300      -0.7143400
C       -1.4301900       0.7868500      -0.1210300
C       -1.9802700       1.0789500       1.2506400
O       -2.7206600       0.2878000       1.8405400
N       -1.6161900       2.2603900       1.7759000
C       -1.9881500       2.6305200       3.1265900
O       -1.7657800      -0.3623300      -0.7393800
C       -1.4892300      -1.6322800      -0.4428800
C       -1.7465900      -2.5180200      -1.6206600
C       -1.7731900      -2.1921700       0.9208700
H       -1.6717900       2.2714300      -4.3801900
H       -1.4265300       3.5763000      -3.1870300
H       -0.0737800       2.4920500      -3.6108400
H       -1.6776600       0.6593300      -2.6299100
H       -1.1271900       2.9055400       1.1704600
H       -3.0805100       2.6165500       3.3038300
H       -1.5289600       1.9383500       3.8571600
H       -1.6212100       3.6466000       3.3389000
H       -2.8795200      -2.8554200      -1.6524300
H       -1.1932100      -3.3956800      -1.5349000
H       -1.6100000      -1.9745700      -2.5617000
H       -2.8915600      -2.1647400       1.1563100
H       -1.2989900      -1.5952400       1.6886300
H       -1.4715300      -3.2172600       0.9269000
