14
dipolar_000411 reactant_2 (FRAG2 relaxed, reordered to d) type=dipole
C       -0.8084400       0.7877100      -0.0172500
C       -1.8934200      -0.0768000       0.3877500
O       -1.6938900      -1.2814300       0.6158200
C       -3.2570700       0.5475300       0.5140200
N        0.3898000       0.2165000      -0.1252300
C        1.5701300       0.7276900      -0.4706500
C        2.7134100      -0.0853600      -0.5103500
N        3.6809400      -0.7420200      -0.5512800
H       -3.5764500       0.9567400      -0.4586000
H       -0.9168000       1.8498400      -0.2324200
H        1.6345800       1.7877700      -0.7203600
H       -3.2273000       1.3902600       1.2236500
H       -3.9837600      -0.2009400       0.8557500
H        0.3528400      -0.7901000       0.1075000
