35
dipolar_000411 TS complex (tags stripped)
C       -2.7040600       2.4588600      -1.2770600
C       -1.3215400       2.1071800      -0.8242900
O       -0.3435300       2.1760000      -1.5457200
C       -1.2022700       1.7265500       0.6282700
N       -0.0864900       1.5484600       1.2723300
C        1.0952400       0.9947200       0.6426000
C        2.2557100       1.1718500       1.5268300
N        3.1901700       1.2117400       2.2200100
C        0.8601500      -0.5703600       0.2359100
F        1.4602500      -1.3764700       1.2426400
C        1.7788700      -0.8719700      -1.0103100
C        1.9570400      -2.3231600      -1.4156700
O        2.5039300       0.0070300      -1.4661100
C       -0.5820700      -0.9328100       0.0737200
C       -1.3184100      -1.2325400       1.2987200
C       -2.6249900      -1.9964600       1.2838100
O       -0.8560900      -0.8772700       2.3981900
C       -1.0866900      -0.9007700      -1.2733300
C       -2.5575800      -1.0311400      -1.6040700
O       -0.2921400      -0.7010900      -2.2208400
H       -3.4777300       1.8504600      -0.7954100
H       -2.9155900       3.5203400      -1.0180600
H       -2.7609600       2.3630100      -2.3742400
H       -2.1125100       1.8077000       1.2480600
H       -0.1718400       1.3951100       2.2671600
H        1.2768600       1.5835700      -0.3302200
H        2.6685700      -2.8338200      -0.7453800
H        1.0567100      -2.9295700      -1.4927400
H        2.4759600      -2.3604100      -2.4602900
H       -3.4571100      -1.3270300       1.0550900
H       -2.7965300      -2.4194600       2.2932800
H       -2.6274000      -2.8163800       0.5449600
H       -2.7268400      -0.6160500      -2.6096800
H       -3.1883900      -0.4788300      -0.8800900
H       -2.8576800      -2.0736300      -1.5895200
